------------------------------------------------------------
          Invoking FHI-aims ...

          When using FHI-aims, please cite the following reference:

            Volker Blum, Ralf Gehrke, Felix Hanke, Paula Havu,
            Ville Havu, Xinguo Ren, Karsten Reuter, and Matthias Scheffler,
            'Ab Initio Molecular Simulations with Numeric Atom-Centered Orbitals',
            Computer Physics Communications 180, 2175-2196 (2009)

          In addition, many other developments in FHI-aims are likely important for
          your particular application. If so, please cite them. A partial list of references
          is written at the end of this file. Thank you for giving credit to the authors
          of these developments.

          For general information about FHI-aims please find us at

            https://fhi-aims.org

          Online tutorials can be found at

            https://fhi-aims-club.gitlab.io/tutorials/tutorials-overview/

          For any questions about FHI-aims, please visit our slack channel at

            https://fhi-aims.slack.com

          and our main development and support site at

            https://aims-git.rz-berlin.mpg.de .

          The latter site, in particular, has a wiki to collect information, as well
          as an issue tracker to log discussions, suggest improvements, and report issues
          or bugs. https://aims-git.rz-berlin.mpg.de is also the main development site
          of the project and all new and updated code versions can be obtained there.
          Please send an email to aims-coordinators@ms1p.org and we will add
          you to these sites. They are for you and everyone is welcome there.

------------------------------------------------------------



  Date     :  20260729, Time     :  215846.074
  Time zero on CPU 1             :   0.519997000000000E+00  s.
  Internal wall clock time zero  :           554594326.074  s.

  FHI-aims created a unique identifier for this run for later identification
  aims_uuid : 721BF94B-8205-4A68-A338-79DD402C9149

  Build configuration of the current instance of FHI-aims
  -------------------------------------------------------
  FHI-aims version      : 260331
  Commit number         : GITDIR-NOTFOUND
  CMake host system     : Linux-6.8.0-1050-aws
  CMake version         : 3.27.9
  OS Distribution       : Ubuntu 22.04.5 LTS
  Built on              : Intel(R) Xeon(R) Platinum 8488C
  Fortran compiler      : /home/ubuntu/miniconda3/envs/aims-build/bin/mpifort (GNU) version 15.2.0
  Fortran compiler flags: -O3 -fallow-argument-mismatch -ffree-line-length-none
  C compiler            : /home/ubuntu/miniconda3/envs/aims-build/bin/mpicc (GNU) version 15.2.0
  C compiler flags      : -O3 -funroll-loops -std=gnu99
  C++ compiler          : /home/ubuntu/miniconda3/envs/aims-build/bin/mpicxx (GNU) version 15.2.0
  C++ compiler flags    :
  HIP compiler          :
  HIP compiler flags    :
  HIP GPU arch          :
  Using MPI
  Using ScaLAPACK
  Using LibXC
  Using i-PI
  Using HDF5
  Using RLSY
  Using GREENX
  Linking against: /home/ubuntu/miniconda3/envs/aims-build/lib/libscalapack.so
                   /home/ubuntu/miniconda3/envs/aims-build/lib/libopenblas.so
                   /home/ubuntu/miniconda3/envs/aims-build/lib/libhdf5_fortran.so
                   /home/ubuntu/miniconda3/envs/aims-build/lib/libhdf5.so

  Using       16 parallel tasks.
  Task        0 on host cpu32-dy-c7iflexlarge16-1 reporting.
  Task        1 on host cpu32-dy-c7iflexlarge16-1 reporting.
  Task        2 on host cpu32-dy-c7iflexlarge16-1 reporting.
  Task        3 on host cpu32-dy-c7iflexlarge16-1 reporting.
  Task        4 on host cpu32-dy-c7iflexlarge16-1 reporting.
  Task        5 on host cpu32-dy-c7iflexlarge16-1 reporting.
  Task        6 on host cpu32-dy-c7iflexlarge16-1 reporting.
  Task        7 on host cpu32-dy-c7iflexlarge16-1 reporting.
  Task        8 on host cpu32-dy-c7iflexlarge16-1 reporting.
  Task        9 on host cpu32-dy-c7iflexlarge16-1 reporting.
  Task       10 on host cpu32-dy-c7iflexlarge16-1 reporting.
  Task       11 on host cpu32-dy-c7iflexlarge16-1 reporting.
  Task       12 on host cpu32-dy-c7iflexlarge16-1 reporting.
  Task       13 on host cpu32-dy-c7iflexlarge16-1 reporting.
  Task       14 on host cpu32-dy-c7iflexlarge16-1 reporting.
  Task       15 on host cpu32-dy-c7iflexlarge16-1 reporting.

  Obtaining array dimensions for all initial allocations:
  
  -----------------------------------------------------------------------
  Parsing control.in (first pass over file, find array dimensions only).
  The contents of control.in will be repeated verbatim below
  unless switched off by setting 'verbatim_writeout .false.' .
  in the first line of control.in .
  -----------------------------------------------------------------------
  
  # FHI-aims control parameters for strained graphene
  xc pbe
  spin none
  relativistic atomic_zora scalar
  k_grid 42 42 1
  empty_states 15
  output_rs_matrices plain
  ri_density_restart write
  
  ################################################################################
  # Species Defaults: Carbon (intermediate)
  ################################################################################
  ################################################################################
  #
  #  FHI-aims code project
  #  Volker Blum, 2017
  #
  #  Suggested "intermediate" defaults for C atom (to be pasted into control.in file)
  #
  ################################################################################
    species        C_A
  #     global species definitions
      nucleus             6.05000000
      mass                12.0107
  #
      l_hartree           6
  #
      cut_pot             4.0  2.0  1.0
      basis_dep_cutoff    1e-4
  #
      radial_base         34 7.0
      radial_multiplier   2
      angular_grids specified
        division   0.2187   50
        division   0.4416  110
        division   0.6335  194
        division   0.7727  302
        division   0.8772  434
  #      division   0.9334  590
  #      division   0.9924  770
  #      division   1.0230  974
  #      division   1.5020 1202
  #     outer_grid  974
        outer_grid  434
  ################################################################################
  #
  #  Definition of "minimal" basis
  #
  ################################################################################
  #     valence basis states
      valence      2  s   2.
      valence      2  p   2.05000000
  #     ion occupancy
      ion_occ      2  s   1.
      ion_occ      2  p   1.
  ################################################################################
  #
  #  Suggested additional basis functions. For production calculations,
  #  uncomment them one after another (the most important basis functions are
  #  listed first).
  #
  #  Constructed for dimers: 1.0 A, 1.25 A, 1.5 A, 2.0 A, 3.0 A
  #
  ################################################################################
  #  "First tier" - improvements: -1214.57 meV to -155.61 meV
       hydro 2 p 1.7
       hydro 3 d 6
       hydro 2 s 4.9
  #  "Second tier" - improvements: -67.75 meV to -5.23 meV
       hydro 4 f 9.8
  #     hydro 3 p 5.2
  #     hydro 3 s 4.3
    for_aux    hydro 5 g 14.4
  #     hydro 3 d 6.2
  #  "Third tier" - improvements: -2.43 meV to -0.60 meV
  #     hydro 2 p 5.6
  #     hydro 2 s 1.4
  #     hydro 3 d 4.9
  #     hydro 4 f 11.2
  #  "Fourth tier" - improvements: -0.39 meV to -0.18 meV
  #     hydro 2 p 2.1
  #     hydro 5 g 16.4
  #     hydro 4 d 13.2
  #     hydro 3 s 13.6
  #     hydro 4 f 17.6
  #  Further basis functions - improvements: -0.08 meV and below
  #     hydro 3 s 2
  #     hydro 3 p 6
  #     hydro 4 d 20
  
  
  ################################################################################
  #
  #  FHI-aims code project
  #  Volker Blum, 2017
  #
  #  Suggested "intermediate" defaults for C atom (to be pasted into control.in file)
  #
  ################################################################################
    species        C_B
  #     global species definitions
      nucleus             5.95000000
      mass                12.0107
  #
      l_hartree           6
  #
      cut_pot             4.0  2.0  1.0
      basis_dep_cutoff    1e-4
  #
      radial_base         34 7.0
      radial_multiplier   2
      angular_grids specified
        division   0.2187   50
        division   0.4416  110
        division   0.6335  194
        division   0.7727  302
        division   0.8772  434
  #      division   0.9334  590
  #      division   0.9924  770
  #      division   1.0230  974
  #      division   1.5020 1202
  #     outer_grid  974
        outer_grid  434
  ################################################################################
  #
  #  Definition of "minimal" basis
  #
  ################################################################################
  #     valence basis states
      valence      2  s   2.
      valence      2  p   1.95000000
  #     ion occupancy
      ion_occ      2  s   1.
      ion_occ      2  p   1.
  ################################################################################
  #
  #  Suggested additional basis functions. For production calculations,
  #  uncomment them one after another (the most important basis functions are
  #  listed first).
  #
  #  Constructed for dimers: 1.0 A, 1.25 A, 1.5 A, 2.0 A, 3.0 A
  #
  ################################################################################
  #  "First tier" - improvements: -1214.57 meV to -155.61 meV
       hydro 2 p 1.7
       hydro 3 d 6
       hydro 2 s 4.9
  #  "Second tier" - improvements: -67.75 meV to -5.23 meV
       hydro 4 f 9.8
  #     hydro 3 p 5.2
  #     hydro 3 s 4.3
    for_aux    hydro 5 g 14.4
  #     hydro 3 d 6.2
  #  "Third tier" - improvements: -2.43 meV to -0.60 meV
  #     hydro 2 p 5.6
  #     hydro 2 s 1.4
  #     hydro 3 d 4.9
  #     hydro 4 f 11.2
  #  "Fourth tier" - improvements: -0.39 meV to -0.18 meV
  #     hydro 2 p 2.1
  #     hydro 5 g 16.4
  #     hydro 4 d 13.2
  #     hydro 3 s 13.6
  #     hydro 4 f 17.6
  #  Further basis functions - improvements: -0.08 meV and below
  #     hydro 3 s 2
  #     hydro 3 p 6
  #     hydro 4 d 20
  
  
  -----------------------------------------------------------------------
  Completed first pass over input file control.in .
  -----------------------------------------------------------------------
  
  
  -----------------------------------------------------------------------
  Parsing geometry.in (first pass over file, find array dimensions only).
  The contents of geometry.in will be repeated verbatim below
  unless switched off by setting 'verbatim_writeout .false.' .
  in the first line of geometry.in .
  -----------------------------------------------------------------------
  
  #
  # This is the geometry file that corresponds to the current relaxation step.
  # If you do not want this file to be written, set the "write_restart_geometry" flag to .false.
  #  aims_uuid : A0001A0A-456F-44B8-A4A3-139F4B4CAADB
  #
  lattice_vector      2.236943620000     -1.219852500000      0.000000000000
  lattice_vector      2.236943620000      1.219852500000      0.000000000000
  lattice_vector      0.000000000000      0.000000000000     15.000000000000
  atom       0.003204391026      0.000000000005      0.000000000019 C_A
  atom       1.488091358974     -0.000000000005     -0.000000000019 C_B
  #
  # What follows is the current estimated Hessian matrix constructed by the BFGS algorithm.
  # This is NOT the true Hessian matrix of the system.
  # If you do not want this information here, switch it off using the "hessian_to_restart_geometry" keyword.
  #
  trust_radius             0.2000000030
  hessian_file
  
  -----------------------------------------------------------------------
  Completed first pass over input file geometry.in .
  -----------------------------------------------------------------------
  

  Basic array size parameters:
  | Number of species                 :        2
  | Number of atoms                   :        2
  | Number of lattice vectors         :        3
  | Max. basis fn. angular momentum   :        4
  | Max. atomic/ionic basis occupied n:        2
  | Max. number of basis fn. types    :        2
  | Max. radial fns per species/type  :        5
  | Max. logarithmic grid size        :     1278
  | Max. radial integration grid size :       69
  | Max. angular integration grid size:      434
  | Max. angular grid division number :        8
  | Radial grid for Hartree potential :     1278
  | Number of spin channels           :        1

  Definition of standardized fundamental physical constants in this FHI-aims run:
  | Using the set of values used in FHI-aims up to 2024, which combines values from
  | different CODATA sets - see constants.f90.
  | Use the 'codata' keyword in control.in to change this selection.

  Memory overcommitment is allowed on your operating system.

------------------------------------------------------------
          Reading file control.in.
------------------------------------------------------------
  XC: Using PBE gradient-corrected functionals.
  Spin treatment: No spin polarisation.
  Scalar relativistic treatment of kinetic energy: on-site free-atom approximation to ZORA.
  Found k-point grid:        42        42         1
  Number of empty states per atom:       15
  Output of real space matrices in human-readable format is requested.

  Reading configuration options for species C_A                 .
  | Found nuclear charge :   6.0500
  | Found atomic mass :    12.010700000000000      amu
  | Found l_max for Hartree potential  :   6
  | Found cutoff potl. onset [A], width [A], scale factor :    4.00000    2.00000    1.00000
  | Threshold for basis-dependent cutoff potential is   0.100000E-03
  | Found data for basic radial integration grid :    34 points, outermost radius =    7.000 A
  | Found multiplier for basic radial grid :   2
  | Found angular grid specification: user-specified.
  | Specified grid contains     6 separate shells.
  | Check grid settings after all constraints further below.
  | Found free-atom valence shell :  2 s   2.000
  | Found free-atom valence shell :  2 p   2.050
  | No ionic wave fns used. Skipping ion_occ.
  | No ionic wave fns used. Skipping ion_occ.
  | Found hydrogenic basis function :  2 p   1.700
  | Found hydrogenic basis function :  3 d   6.000
  | Found hydrogenic basis function :  2 s   4.900
  | Found hydrogenic basis function :  4 f   9.800
  | Found hydrogenic extended basis function :  5 g  14.400
 | Encountered keyword species, ending the description of species C_A                 .
  Species C_A                 : Missing cutoff potential type.
  Defaulting to exp(1/x)/(1-x)^2 type cutoff potential.
  Species C_: No 'logarithmic' tag. Using default grid for free atom:
  | Default logarithmic grid data [bohr] : 0.1000E-03 0.1000E+03 0.1012E+01
  Species C_: On-site basis accuracy parameter (for Gram-Schmidt orthonormalisation) not specified.
  Using default value basis_acc =  0.1000000E-03.
  Species C_A                 : Using default innermost maximum threshold i_radial=  2 for radial functions.
  Species C_A                 : Default cutoff onset for free atom density etc. : 0.40000000E+01 AA.
  Species C_A                 : Basic radial grid will be enhanced according to radial_multiplier =   2, to contain    69 grid points.

  Reading configuration options for species C_B                 .
  | Found nuclear charge :   5.9500
  | Found atomic mass :    12.010700000000000      amu
  | Found l_max for Hartree potential  :   6
  | Found cutoff potl. onset [A], width [A], scale factor :    4.00000    2.00000    1.00000
  | Threshold for basis-dependent cutoff potential is   0.100000E-03
  | Found data for basic radial integration grid :    34 points, outermost radius =    7.000 A
  | Found multiplier for basic radial grid :   2
  | Found angular grid specification: user-specified.
  | Specified grid contains     6 separate shells.
  | Check grid settings after all constraints further below.
  | Found free-atom valence shell :  2 s   2.000
  | Found free-atom valence shell :  2 p   1.950
  | No ionic wave fns used. Skipping ion_occ.
  | No ionic wave fns used. Skipping ion_occ.
  | Found hydrogenic basis function :  2 p   1.700
  | Found hydrogenic basis function :  3 d   6.000
  | Found hydrogenic basis function :  2 s   4.900
  | Found hydrogenic basis function :  4 f   9.800
  | Found hydrogenic extended basis function :  5 g  14.400
  Species C_B                 : Missing cutoff potential type.
  Defaulting to exp(1/x)/(1-x)^2 type cutoff potential.
  Species C_: No 'logarithmic' tag. Using default grid for free atom:
  | Default logarithmic grid data [bohr] : 0.1000E-03 0.1000E+03 0.1012E+01
  Species C_: On-site basis accuracy parameter (for Gram-Schmidt orthonormalisation) not specified.
  Using default value basis_acc =  0.1000000E-03.
  Species C_B                 : Using default innermost maximum threshold i_radial=  2 for radial functions.
  Species C_B                 : Default cutoff onset for free atom density etc. : 0.40000000E+01 AA.
  Species C_B                 : Basic radial grid will be enhanced according to radial_multiplier =   2, to contain    69 grid points.

  Finished reading input file 'control.in'.

------------------------------------------------------------


------------------------------------------------------------
          Reading geometry description geometry.in.
------------------------------------------------------------
 * Large trust radius value found - resetting to the current value of max_atomic_move,      0.20000000 A.
  Found keyword 'hessian_file', indicating that this is the continuation of a structure optimization.
  However, the control.in file does not request the geometry to be optimized.
  Ignoring the request for a file 'hessian.aims' to be present.
  | The smallest distance between any two atoms is         1.43304896 AA.
  | The first atom of this pair is atom number                      1 .
  | The second atom of this pair is atom number                     2 .
  | Wigner-Seitz cell of the first atom image           1     0     0 .
  | (The Wigner-Seitz cell of the second atom is 0 0 0  by definition.)

  Symmetry information by spglib:
  | Precision set to  0.1E-04
  | Number of Operations  : 4
  | Space group           : 38
  | International         : Amm2     U
  | Schoenflies           : C2v^14
  Input structure read successfully.
  The structure contains        2 atoms,  and a total of         12.000 electrons.

  Input geometry:
  | Unit cell:
  |        2.23694362       -1.21985250        0.00000000
  |        2.23694362        1.21985250        0.00000000
  |        0.00000000        0.00000000       15.00000000
  | Atomic structure:
  |       Atom                x [A]            y [A]            z [A]
  |    1: Species C_A           0.00320439        0.00000000        0.00000000
  |    2: Species C_B           1.48809136       -0.00000000       -0.00000000

  Lattice parameters for 3D lattice (in Angstroms) :     2.547932    2.547932   15.000000
  Angle(s) between unit vectors (in degrees)       :    90.000000   90.000000   57.209131


  Quantities derived from the lattice vectors (in Angstrom^-1):
  | Reciprocal lattice vector 1:  1.404413 -2.575387  0.000000
  | Reciprocal lattice vector 2:  1.404413  2.575387  0.000000
  | Reciprocal lattice vector 3:  0.000000  0.000000  0.418879
  | Unit cell volume                               :   0.818622E+02  Angstrom^3

  Fractional coordinates:
                         L1                L2                L3
       atom_frac         0.00071624        0.00071624        0.00000000  C_A
       atom_frac         0.33261709        0.33261709       -0.00000000  C_B

  Slab Identifier: This is Z-oriented slab and maximum thickness of the vacuum is: 15.000 Angstrom.

  Finished reading input file 'geometry.in'.



  Consistency checks for stacksize environment parameter are next.

  | Maximum stacksize for task 0: unlimited
  | Maximum stacksize for task 1: unlimited
  | Maximum stacksize for task 2: unlimited
  | Maximum stacksize for task 3: unlimited
  | Maximum stacksize for task 4: unlimited
  | Maximum stacksize for task 5: unlimited
  | Maximum stacksize for task 6: unlimited
  | Maximum stacksize for task 7: unlimited
  | Maximum stacksize for task 8: unlimited
  | Maximum stacksize for task 9: unlimited
  | Maximum stacksize for task 10: unlimited
  | Maximum stacksize for task 11: unlimited
  | Maximum stacksize for task 12: unlimited
  | Maximum stacksize for task 13: unlimited
  | Maximum stacksize for task 14: unlimited
  | Maximum stacksize for task 15: unlimited
  | Current stacksize for task 0: unlimited
  | Current stacksize for task 1: unlimited
  | Current stacksize for task 2: unlimited
  | Current stacksize for task 3: unlimited
  | Current stacksize for task 4: unlimited
  | Current stacksize for task 5: unlimited
  | Current stacksize for task 6: unlimited
  | Current stacksize for task 7: unlimited
  | Current stacksize for task 8: unlimited
  | Current stacksize for task 9: unlimited
  | Current stacksize for task 10: unlimited
  | Current stacksize for task 11: unlimited
  | Current stacksize for task 12: unlimited
  | Current stacksize for task 13: unlimited
  | Current stacksize for task 14: unlimited
  | Current stacksize for task 15: unlimited

  Consistency checks for the contents of control.in are next.

  MPI_IN_PLACE appears to work with this MPI implementation.
  | Keeping use_mpi_in_place .true. (see manual).
  Explicit treatment of the Coulomb operator is needed, but the RI method is not specified.
  Coulomb operator: Defaulting to 'LVL fast' resolution of identity - RI_type = LVL_fast
  Species C_A: Using default value for prodbas_acc =   1.000000E-04.
  Species C_A: Using default value max_l_prodbas =    20.
  Species C_B: Using default value for prodbas_acc =   1.000000E-04.
  Species C_B: Using default value max_l_prodbas =    20.
  Target number of points in a grid batch is not set. Defaulting to  100
  Method for grid partitioning is not set. Defaulting to parallel hash+maxmin partitioning.
  Batch size limit is not set. Defaulting to    200
  By default, will store active basis functions for each batch.
  If in need of memory, prune_basis_once .false. can be used to disable this option.
  communication_type for Hartree potential was not specified.
  Defaulting to calc_hartree .
  Defaulting to Pulay charge density mixer.
  Pulay mixer: Number of relevant iterations not set.
  Defaulting to    8 iterations.
  Pulay mixer: Number of initial linear mixing iterations not set.
  Defaulting to    0 iterations.
  Work space size for distributed Hartree potential not set.
  Defaulting to   0.200000E+03 MB.
  Mixing parameter for charge density mixing has not been set.
  Using default: charge_mix_param =     0.0500.
  The mixing parameter will be adjusted in iteration number     2 of each s.c.f. cycle (i.e., each geometry step).
  Algorithm-dependent basis array size parameters:
  | n_max_pulay                         :        8
  Maximum number of self-consistency iterations not provided.
  Presetting  1000 iterations.
  Presetting      1001 iterations before the initial mixing cycle
  is restarted anyway using the sc_init_iter criterion / keyword.
  Presetting a factor      1.000 between actual scf density residual
  and density convergence criterion sc_accuracy_rho below which sc_init_iter
  takes no effect.
 * No s.c.f. convergence criteria (sc_accuracy_*) were provided in control.in.
 * The run will proceed with a reasonable default guess, but please check whether.
 * the s.c.f. cycles seem to take too much or too little time.
  Calculation of forces was not defined in control.in. No forces will be calculated.
  Geometry relaxation not requested: no relaxation will be performed.
 * Notice: The s.c.f. convergence criterion sc_accuracy_rho was not provided.
 * We used to stop in this case, and ask the user to provide reasonable
 * scf convergence criteria. However, this led some users to employ criteria
 * that led to extremely long run times, e.g., for simple relaxation.
 * We now preset a default value for sc_accuracy_rho if it is not set.
 * You may still wish to check if this setting is too tight or too loose for your needs.
 * Based on n_atoms and forces and force-correction status, FHI-aims chose sc_accuracy_rho =  0.800000E-05 .
  No accuracy limit for integral partition fn. given. Defaulting to  0.1000E-14.
  No threshold value for u(r) in integrations given. Defaulting to  0.1000E-05.
  No occupation type (smearing scheme) given. Defaulting to Gaussian broadening, width =  0.1000E-01 eV.
  The width will be adjusted in iteration number     2 of each s.c.f. cycle (i.e., each geometry step).
  No accuracy for occupation numbers given. Defaulting to  0.1000E-12.
  No threshold value for occupation numbers given. Defaulting to  0.0000E+00.
  No accuracy for fermi level given. Defaulting to  0.1000E-19.
  Maximum # of iterations to find E_F not set. Defaulting to  200.
  Preferred method for the eigenvalue solver ('KS_method') not specified in 'control.in'.
  Defaulting to serial version, LAPACK (via ELSI), since more k-points than CPUs available.
  Threshold for basis singularities not set.
  Default threshold for basis singularities:  0.1000E-04
  partition_type (choice of integration weights) for integrals was not specified.
  | Using a version of the partition function of Stratmann and coworkers ('stratmann_sparse').
  | At each grid point, the set of atoms used to build the partition table is smoothly restricted to
  | only those atoms whose free-atom density would be non-zero at that grid point.
  Partitioning for Hartree potential was not defined. Using partition_type for integrals.
  | Adjusted default value of keyword multip_moments_threshold to:       0.10000000E-11
  | This value may affect high angular momentum components of the Hartree potential in periodic systems.
  Using 2025 definition of centers list for evaluation of the Stratmann partition function.
  Angular momentum expansion for Kerker preconditioner not set explicitly.
  | Using default value of   0
  No explicit requirement for turning off preconditioner.
  | By default, it will be turned off when the charge convergence reaches
  | sc_accuracy_rho  =   0.800000E-05
  No special mixing parameter while Kerker preconditioner is on.
  Using default: charge_mix_param =     0.0500.
  Threshold for auxiliary basis singularities not set.
  Default threshold for auxiliary basis singularities:  0.1000E-04
  Use default threshold for vanishing multipole moments of auxiliary basis:  0.1000E-07
  No q(lm)/r^(l+1) cutoff set for long-range Hartree potential.
  | Using default value of  0.100000E-09 .
  | Verify using the multipole_threshold keyword.
  Defaulting to new monopole extrapolation.
  Density update method: automatic selection selected.
  Using density matrix based charge density update.
  Using density matrix based charge density update.
  Using packed matrix style: index .
  Threshold of packed matrixes:  0.000000E+00
  Defaulting to use time-reversal symmetry for k-point grid.
  Charge integration errors on the 3D integration grid will be compensated
  by explicit normalization and distribution of residual charges.
  Use the "compensate_multipole_errors" flag to change this behaviour.
  Default to 1D ("use_logsbt") integrations for auxiliary 2-center integrals.
  Default onset of logarithmic r-grid for SBT is -38.000000000000
  Default onset of logarithmic k-grid for SBT is -25.000000000000
  Default range of logarithmic r- and k-grid for SBT is  45.000000000000
  Default number of logarithmic r- and k-grid for SBT is   4096
  Set 'collect_eigenvectors' to be '.true.' for all serial calculations. This is mandatory.
  Set 'collect_eigenvectors' to be '.true.' for KS_method lapack_fast and serial.
  Found potential conflicts with setting 'use_local_index' for this calculation. Will not set it.

  Consistency checks for the contents of geometry.in are next.


  Range separation radius for Ewald summation (hartree_convergence_parameter):      5.00000000 bohr.
  Structure-dependent array size parameters: 
  | Maximum number of distinct radial functions  :       16
  | Maximum number of basis functions            :       60
  | Number of Kohn-Sham states (occupied + empty):       21
------------------------------------------------------------

  Checking k-grid inconsistencies now:
  | k-point density for reciprocal lattice vector 1 is   14.32 nkpts / Angstrom^-1
  | k-point density for reciprocal lattice vector 2 is   14.32 nkpts / Angstrom^-1
  | k-point density for reciprocal vacuum lattice vector 3 is    2.39 nkpts / Angstrom^-1

  | Ratio of k-point densities for reciprocal lattice vectors 1 vs 2 is    1.00

  * The specified k_grid leads to a nearly homogenous k-grid density in non-vacuum directions,
  * and seems sensible.

  | Checks passed.
  After read_input_data [GB]:    126.26

  Performing system and environment tests:
  | Environment variable OMP_NUM_THREADS correctly set to 1.
  | Checking for ScaLAPACK...
  | Testing pdtran()...
  | All pdtran() tests passed.
  | Testing CPU compatibility for run-time vs. build-time.
  | Reading /proc/cpuinfo for CPU information ...
  | Built for  : Intel(R) Xeon(R) Platinum 8488C
  | Running on : Intel(R) Xeon(R) Platinum 8488C
  | Runtime CPU compatibility verified.
  
  After prepare_system [GB]:    126.25

------------------------------------------------------------
          Preparing all fixed parts of the calculation.
------------------------------------------------------------
  Determining machine precision:
     2.2250738585072014E-308
  Setting up grids for atomic and cluster calculations.

  Creating wave function, potential, and density for free atoms.
  Runtime choices for atomic solver:
  | atomic solver xc        : PBE
  | compute density gradient: 1
  | compute kinetic density : F

  Species: C_A

  List of occupied orbitals and eigenvalues:
    n    l              occ      energy [Ha]    energy [eV]
    1    0           2.0000       -10.237755      -278.5835
    2    0           2.0000        -0.513204       -13.9650
    2    1           2.0500        -0.196866        -5.3570


  Species: C_B

  List of occupied orbitals and eigenvalues:
    n    l              occ      energy [Ha]    energy [eV]
    1    0           2.0000        -9.862375      -268.3689
    2    0           2.0000        -0.496365       -13.5068
    2    1           1.9500        -0.190407        -5.1812


  Adding cutoff potential to free-atom effective potential.
  Creating fixed part of basis set: Ionic, confined, hydrogenic.

  C_A                  hydrogenic:

  List of hydrogenic basis orbitals: 
    n    l      effective z      eigenvalue [eV]  inner max. [A]     outer max. [A]     outer radius [A]   
    2    1         1.700000        -9.8152           1.250607           1.250607           5.422879
    3    2         6.000000       -54.4226           0.795571           0.795571           4.144065
    2    0         4.900000       -81.6681           0.082884           0.564963           3.366429
    4    3         9.800000       -81.6681           0.866649           0.866649           3.994835

  List of extra hydrogenic orbitals for auxiliary basis: 
    n    l      effective z      eigenvalue [eV]  inner max. [A]     outer max. [A]     outer radius [A]   
    5    4        14.400000      -112.8510           0.921276           0.921276           3.898346


  C_B                  hydrogenic:

  List of hydrogenic basis orbitals: 
    n    l      effective z      eigenvalue [eV]  inner max. [A]     outer max. [A]     outer radius [A]   
    2    1         1.700000        -9.8152           1.240911           1.240911           5.447022
    3    2         6.000000       -54.4226           0.789403           0.789403           4.162514
    2    0         4.900000       -81.6681           0.082241           0.567478           3.381416
    4    3         9.800000       -81.6681           0.859931           0.859931           4.012620

  List of extra hydrogenic orbitals for auxiliary basis: 
    n    l      effective z      eigenvalue [eV]  inner max. [A]     outer max. [A]     outer radius [A]   
    5    4        14.400000      -112.8510           0.914133           0.914133           3.868123

  Creating atomic-like basis functions for current effective potential.

  Species C_A                 :

  List of atomic basis orbitals and eigenvalues:
    n    l      energy [Ha]    energy [eV]    outer radius [A]
    1    0       -10.237755      -278.5835       1.918423
    2    0        -0.513204       -13.9650       5.291898
    2    1        -0.196866        -5.3570       5.356988


  Species C_B                 :

  List of atomic basis orbitals and eigenvalues:
    n    l      energy [Ha]    energy [eV]    outer radius [A]
    1    0        -9.862375      -268.3689       1.950665
    2    0        -0.496365       -13.5068       5.250871
    2    1        -0.190407        -5.1812       5.380837

  Assembling full basis from fixed parts.
  | Species C_A :   atomic orbital   1 s accepted.
  | Species C_A :    hydro orbital   2 s accepted.
  | Species C_A :   atomic orbital   2 s accepted.
  | Species C_A :   atomic orbital   2 p accepted.
  | Species C_A :    hydro orbital   2 p accepted.
  | Species C_A :    hydro orbital   3 d accepted.
  | Species C_A :    hydro orbital   4 f accepted.
  | Species C_B :   atomic orbital   1 s accepted.
  | Species C_B :    hydro orbital   2 s accepted.
  | Species C_B :   atomic orbital   2 s accepted.
  | Species C_B :   atomic orbital   2 p accepted.
  | Species C_B :    hydro orbital   2 p accepted.
  | Species C_B :    hydro orbital   3 d accepted.
  | Species C_B :    hydro orbital   4 f accepted.

  Basis size parameters after reduction:
  | Total number of radial functions:       14
  | Total number of basis functions :       42

  Assembling extended basis for auxiliary basis.
  | Species C_A :   atomic orbital   1 s accepted.
  | Species C_A :    hydro orbital   2 s accepted.
  | Species C_A :   atomic orbital   2 s accepted.
  | Species C_A :   atomic orbital   2 p accepted.
  | Species C_A :    hydro orbital   2 p accepted.
  | Species C_A :    hydro orbital   3 d accepted.
  | Species C_A :    hydro orbital   4 f accepted.
  | Species C_A :    hydro orbital   5 g accepted.
  | Species C_B :   atomic orbital   1 s accepted.
  | Species C_B :    hydro orbital   2 s accepted.
  | Species C_B :   atomic orbital   2 s accepted.
  | Species C_B :   atomic orbital   2 p accepted.
  | Species C_B :    hydro orbital   2 p accepted.
  | Species C_B :    hydro orbital   3 d accepted.
  | Species C_B :    hydro orbital   4 f accepted.
  | Species C_B :    hydro orbital   5 g accepted.
  Per-task memory consumption for arrays in subroutine allocate_ext:
  |           5.237016MB.

  Extended basis size parameters after reduction:
  | Total number of radial functions:       16
  | Total number of basis functions :       60

  Testing on-site integration grid accuracy.
  |  Species  Function  <phi|h_atom|phi> (log., in eV)  <phi|h_atom|phi> (rad., in eV)
           1        1               -278.5834886945               -278.5834871531
           1        2                -11.0967272629                -11.0967273535
           1        3                 18.7579533338                 18.7579536894
           1        4                 -5.3574249071                 -5.3573933028
           1        5                  7.9565745679                  7.9571985613
           1        6                 27.4575180369                 27.4575173379
           1        7                 59.3843813541                 59.3843812946
           2        8               -268.3688793098               -268.3688779192
           2        9                -10.4300955739                -10.4300923749
           2       10                 16.6898450477                 16.6898482095
           2       11                 -5.1817276004                 -5.1816905286
           2       12                  8.0867400997                  8.0873580692
           2       13                 27.4560908480                 27.4560904778
           2       14                 59.3292859015                 59.3292858129

  Preparing densities etc. for the partition functions (integrals / Hartree potential).

  Preparations completed.
  max(cpu_time)          :      0.092 s.
  Wall clock time (cpu1) :      0.092 s.
------------------------------------------------------------
  After prepare_scf [GB]:    125.52

  Initializing index lists of integration centers etc. from given atomic structure:
  Mapping all atomic coordinates to central unit cell.

  Initializing the k-points
  Using symmetry for reducing the k-points
  | k-points reduced from:     1764 to      884
  | Number of k-points                             :       884
  The eigenvectors in the calculations are COMPLEX.
  | K-points in task   0:        55
  | K-points in task   1:        56
  | K-points in task   2:        56
  | K-points in task   3:        56
  | K-points in task   4:        56
  | K-points in task   5:        55
  | K-points in task   6:        55
  | K-points in task   7:        55
  | K-points in task   8:        55
  | K-points in task   9:        55
  | K-points in task  10:        55
  | K-points in task  11:        55
  | K-points in task  12:        55
  | K-points in task  13:        55
  | K-points in task  14:        55
  | K-points in task  15:        55
  | Number of basis functions in the Hamiltonian integrals       :       936
  | Number of basis functions in a single unit cell              :        42
  | Number of centers in hartree potential                       :       630
  | Number of centers in hartree multipole                       :       198
  | Number of centers in electron density summation              :       162
  | Number of centers in basis integrals                         :       170
  | Number of centers in integrals                               :        73
  | Number of centers in hamiltonian                             :       162
  | Number of centers in partition table from touching 0-cell    :       204
  | Number of centers in partition table total                   :       334
  | Consuming       1187 KiB for k_phase.
  | Number of super-cells (origin) [n_cells]                     :        1805
  | Number of super-cells (after PM_index) [n_cells]             :          86
  | Number of super-cells in hamiltonian [n_cells_in_hamiltonian]:          86
  | Size of matrix packed + index [n_hamiltonian_matrix_size]    :       43991
  After initialize_bc_dependent_lists [GB]:    125.52

------------------------------------------------------------
          Begin self-consistency loop: Initialization.

          Date     :  20260729, Time     :  215846.204
------------------------------------------------------------
  Available memory per node after initialize_hartree_non_periodic_ewald [GB]:    125.52
  | Estimated reciprocal-space cutoff momentum G_max:         1.90186217 bohr^-1 .
  | Reciprocal lattice points for long-range Hartree potential:      74
  Available memory per node after initialize_recip_hartree_potential [GB]:    125.52
  Available memory per node after initialize_scalapack [GB]:    125.52
  Available memory per node after aims_elsi_init_scf [GB]:    125.52
  Available memory per node after initialize_fixed_grids [GB]:    125.52
  Partitioning the integration grid into batches with parallel hashing+maxmin method.
  | Number of batches:      478
  | Maximal batch size:     184
  | Minimal batch size:      50
  | Average batch size:      75.640
  | Standard deviation of batch sizes:      23.459

  Integration load balanced across    16 MPI tasks.
  Work distribution over tasks is as follows:
  Task     0 has       2199 integration points.
  Task     1 has       2321 integration points.
  Task     2 has       2210 integration points.
  Task     3 has       2198 integration points.
  Task     4 has       2216 integration points.
  Task     5 has       2360 integration points.
  Task     6 has       2201 integration points.
  Task     7 has       2354 integration points.
  Task     8 has       2206 integration points.
  Task     9 has       2320 integration points.
  Task    10 has       2208 integration points.
  Task    11 has       2220 integration points.
  Task    12 has       2326 integration points.
  Task    13 has       2326 integration points.
  Task    14 has       2261 integration points.
  Task    15 has       2230 integration points.
  Available memory per node after partition_grid [GB]:    125.52
  Initializing partition tables, free-atom densities, potentials, etc. across the integration grid (initialize_grid_storage).
  | initialize_grid_storage: Actual outermost partition radius vs. multipole_radius_free
  | (-- VB: in principle, multipole_radius_free should be larger, hence this output)
  | Species        1: Confinement radius =              6.000000000000000 AA, multipole_radius_free =              6.053591634916608 AA.
  | Species        1: outer_partition_radius set to              6.053591634916608 AA .
  | Species        2: Confinement radius =              6.000000000000000 AA, multipole_radius_free =              6.006659913072470 AA.
  | Species        2: outer_partition_radius set to              6.006659913072470 AA .
  | The sparse table of interatomic distances needs        751.53 kbyte instead of       892.45 kbyte of memory.
  | Net number of integration points:    36156
  | of which are non-zero points    :    27800
  | Numerical average free-atom electrostatic potential    :     -3.01585968 eV
  Available memory per node after initialize_grid_storage_p1 [GB]:    125.52
  Renormalizing the initial density to the exact electron count on the 3D integration grid.
  | Initial density: Formal number of electrons (from input files) :      12.0000000000
  | Integrated number of electrons on 3D grid     :      12.0000283301
  | Charge integration error                      :       0.0000283301
  | Normalization factor for density and gradient :       0.9999976392
  Renormalizing the free-atom superposition density to the exact electron count on the 3D integration grid.
  | Formal number of electrons (from input files) :      12.0000000000
  | Integrated number of electrons on 3D grid     :      12.0000283301
  | Charge integration error                      :       0.0000283301
  | Normalization factor for density and gradient :       0.9999976392
  Obtaining max. number of non-zero basis functions in each batch (get_n_compute_maxes).
  | Maximal number of non-zero basis functions:      601 in task     0
  | Maximal number of non-zero basis functions:      581 in task     1
  | Maximal number of non-zero basis functions:      593 in task     2
  | Maximal number of non-zero basis functions:      595 in task     3
  | Maximal number of non-zero basis functions:      605 in task     4
  | Maximal number of non-zero basis functions:      587 in task     5
  | Maximal number of non-zero basis functions:      597 in task     6
  | Maximal number of non-zero basis functions:      600 in task     7
  | Maximal number of non-zero basis functions:      605 in task     8
  | Maximal number of non-zero basis functions:      602 in task     9
  | Maximal number of non-zero basis functions:      606 in task    10
  | Maximal number of non-zero basis functions:      592 in task    11
  | Maximal number of non-zero basis functions:      608 in task    12
  | Maximal number of non-zero basis functions:      603 in task    13
  | Maximal number of non-zero basis functions:      597 in task    14
  | Maximal number of non-zero basis functions:      603 in task    15
  Available memory per node after get_n_compute_maxes_p1 [GB]:    125.52
  Allocating        0.740 MB for KS_eigenvector_complex
  Available memory per node after allocate_matrices [GB]:    125.52
  Available memory per node after init_comm_sparse_local_matrix_scalapack [GB]:    125.52
  Integrating Hamiltonian matrix: batch-based integration.
  Time summed over all CPUs for integration: real work        1.055 s, elapsed        1.135 s
  Available memory per node after integrate hamiltonian matrix [GB]:    125.52
  Integrating overlap matrix.
  Time summed over all CPUs for integration: real work        0.736 s, elapsed        0.811 s
  Available memory per node after integrate ovlp matrix [GB]:    125.52
  Available memory per node after save_overlap_scalapack [GB]:    125.52

  Updating Kohn-Sham eigenvalues and eigenvectors using ELSI and the (modified) LAPACK eigensolver.
  Singularity check in k-point 16, task 0 (analysis for other k-points/tasks may follow below):
  Overlap matrix is not singular
  | Lowest and highest eigenvalues :  0.4735E-03,  0.3465E+01
  Finished singularity check of overlap matrix
  | Time :     0.000 s
  Starting LAPACK eigensolver
  Finished Cholesky decomposition
  | Time :     0.000 s
  Finished transformation to standard eigenproblem
  | Time :     0.000 s
  Finished solving standard eigenproblem
  | Time :     0.001 s
  Finished back-transformation of eigenvectors
  | Time :     0.000 s

  Obtaining occupation numbers and electronic chemical potential using ELSI.
  | Note that, for insulating systems, the printed 'chemical potential' value is not uniquely defined.
  | It can be anywhere in the energy gap, as long as it correctly separates occupied and unoccupied states.
  | In systems with a gap, the physically relevant chemical potential is the VBM or HOMO.

  | Chemical potential (Fermi level):    -7.94715052 eV
  Available memory per node after advance_KS_solution [GB]:    125.53
  Writing Kohn-Sham eigenvalues.
  K-point:       1 at    0.000000    0.000000    0.000000 (in units of recip. lattice)

  State    Occupation    Eigenvalue [Ha]    Eigenvalue [eV]
      1       2.00000         -10.344348         -281.48404
      2       2.00000          -9.965234         -271.16782
      3       2.00000          -1.017193          -27.67923
      4       2.00000          -0.548769          -14.93275
      5       2.00000          -0.458846          -12.48584
      6       2.00000          -0.447729          -12.18332
      7       0.00000          -0.059115           -1.60861
      8       0.00000          -0.008812           -0.23980
      9       0.00000           0.079883            2.17372
     10       0.00000           0.105688            2.87591
     11       0.00000           0.108026            2.93953
     12       0.00000           0.287897            7.83408
     13       0.00000           0.727563           19.79800
     14       0.00000           0.885239           24.08859
     15       0.00000           0.932638           25.37836
     16       0.00000           1.194652           32.50815
     17       0.00000           1.265329           34.43135
     18       0.00000           1.371174           37.31155
     19       0.00000           1.504309           40.93433
     20       0.00000           1.560299           42.45788
     21       0.00000           1.648349           44.85386

  What follows are estimated values for band gap, HOMO, LUMO, etc.
  | They are estimated on a discrete k-point grid and not necessarily exact.
  | For converged numbers, create a DOS and/or band structure plot on a denser k-grid.

  Highest occupied state (VBM) at     -8.17565528 eV (relative to internal zero)
  | Occupation number:      2.00000000
  | K-point:     454 at    0.333333    0.690476    0.000000 (in units of recip. lattice)

  Lowest unoccupied state (CBM) at    -7.71864576 eV (relative to internal zero)
  | Occupation number:      0.00000000
  | K-point:     454 at    0.333333    0.690476    0.000000 (in units of recip. lattice)

  The gap value is above 0.2 eV. Unless you are using a very sparse k-point grid,
  this system is most likely an insulator or a semiconductor.
  ESTIMATED overall HOMO-LUMO gap:      0.45700952 eV between HOMO at k-point 454 and LUMO at k-point 454
  | This appears to be a direct band gap.
  Calculating total energy contributions from superposition of free atom densities.

  Total energy components:
  | Sum of eigenvalues            :         -45.78293516 Ha       -1245.81705217 eV
  | XC energy correction          :         -10.66680199 Ha        -290.25845030 eV
  | XC potential correction       :          13.70124717 Ha         372.82990481 eV
  | Free-atom electrostatic energy:         -33.51706092 Ha        -912.04563198 eV
  | Hartree energy correction     :          -0.00000000 Ha          -0.00000000 eV
  | Entropy correction            :          -0.00000000 Ha          -0.00000000 eV
  | ---------------------------
  | Total energy                  :         -76.26555090 Ha       -2075.29122964 eV
  | Total energy, T -> 0          :         -76.26555090 Ha       -2075.29122964 eV  <-- do not rely on this value for anything but (periodic) metals
  | Electronic free energy        :         -76.26555090 Ha       -2075.29122964 eV

  Derived energy quantities:
  | Kinetic energy                :          75.86987405 Ha        2064.52431474 eV
  | Electrostatic energy          :        -141.46862296 Ha       -3849.55709409 eV
  | Energy correction for multipole
  | error in Hartree potential    :           0.00000000 Ha           0.00000000 eV
  | Sum of eigenvalues per atom                           :        -622.90852609 eV
  | Total energy (T->0) per atom                          :       -1037.64561482 eV  <-- do not rely on this value for anything but (periodic) metals
  | Electronic free energy per atom                       :       -1037.64561482 eV
  Initialize hartree_potential_storage
  Max. number of atoms included in rho_multipole:            2

  End scf initialization - timings             :  max(cpu_time)    wall_clock(cpu1)
  | Time for scf. initialization                :        0.246 s           0.247 s
  | Boundary condition initialization           :        0.012 s           0.012 s
  | Integration                                 :        0.124 s           0.124 s
  | Solution of K.-S. eqns.                     :        0.042 s           0.042 s
  | Grid partitioning                           :        0.022 s           0.022 s
  | Preloading free-atom quantities on grid     :        0.053 s           0.053 s
  | Free-atom superposition energy              :        0.005 s           0.005 s
  | Total energy evaluation                     :        0.000 s           0.000 s

  Partial memory accounting:
  | Current value for overall tracked memory usage:
  |   Minimum:        1.607 MB (on task  0)
  |   Maximum:        1.621 MB (on task  1)
  |   Average:        1.611 MB
  | Peak value for overall tracked memory usage:
  |   Minimum:        6.656 MB (on task  1 after allocating wave)
  |   Maximum:        7.002 MB (on task 12 after allocating wave)
  |   Average:        6.877 MB
  | Largest tracked array allocation so far:
  |   Minimum:        2.575 MB (hamiltonian_shell on task  1)
  |   Maximum:        2.820 MB (hamiltonian_shell on task 12)
  |   Average:        2.733 MB
  Note:  These values currently only include a subset of arrays which are explicitly tracked.
  The "true" memory usage will be greater.
------------------------------------------------------------
  Available memory after initialize_scf [GB]:    125.53
  Available memory after allocating mixing [GB]:    125.53
  Evaluating new KS density using the density matrix
  Evaluating density matrix
  Time summed over all CPUs for getting density from density matrix: real work        2.014 s, elapsed        2.070 s
  Integration grid: deviation in total charge (<rho> - N_e) =   0.000000E+00

  Time for density update prior                :  max(cpu_time)    wall_clock(cpu1)
  | self-consistency iterative process          :        0.132 s           0.132 s
  Available memory before start of SCF loop [GB]:    125.53

------------------------------------------------------------
          Begin self-consistency iteration #    1

  Date     :  20260729, Time     :  215846.583
------------------------------------------------------------
  Pulay mixing of updated and previous charge densities.
  Available memory per node after mixing [GB]:    125.53
  Renormalizing the density to the exact electron count on the 3D integration grid.
  | Formal number of electrons (from input files) :      12.0000000000
  | Integrated number of electrons on 3D grid     :      11.9997271807
  | Charge integration error                      :      -0.0002728193
  | Normalization factor for density and gradient :       1.0000227355

  Evaluating partitioned Hartree potential by multipole expansion.
  | Original multipole sum: apparent total charge =  -0.706954E-14
  | Sum of charges compensated after spline to logarithmic grids =   0.524558E-07
  | Analytical far-field extrapolation by fixed multipoles:
  | Hartree multipole sum: apparent total charge =  -0.706935E-14
  Summing up the Hartree potential.
  Time summed over all CPUs for potential: real work        0.027 s, elapsed        0.029 s
  | RMS charge density error from multipole expansion :   0.334136E-03
  | Average real-space part of the electrostatic potential :     -0.00077759 eV

  Integrating Hamiltonian matrix: batch-based integration.
  Time summed over all CPUs for integration: real work        1.056 s, elapsed        1.134 s

  Updating Kohn-Sham eigenvalues and eigenvectors using ELSI and the (modified) LAPACK eigensolver.
  Starting LAPACK eigensolver
  Finished Cholesky decomposition
  | Time :     0.000 s
  Finished transformation to standard eigenproblem
  | Time :     0.000 s
  Finished solving standard eigenproblem
  | Time :     0.000 s
  Finished back-transformation of eigenvectors
  | Time :     0.000 s

  Obtaining occupation numbers and electronic chemical potential using ELSI.
  | Note that, for insulating systems, the printed 'chemical potential' value is not uniquely defined.
  | It can be anywhere in the energy gap, as long as it correctly separates occupied and unoccupied states.
  | In systems with a gap, the physically relevant chemical potential is the VBM or HOMO.

  | Chemical potential (Fermi level):    -7.75695883 eV
  Writing Kohn-Sham eigenvalues.
  K-point:       1 at    0.000000    0.000000    0.000000 (in units of recip. lattice)

  State    Occupation    Eigenvalue [Ha]    Eigenvalue [eV]
      1       2.00000         -10.331111         -281.12384
      2       2.00000          -9.953557         -270.85007
      3       2.00000          -1.008915          -27.45398
      4       2.00000          -0.542418          -14.75994
      5       2.00000          -0.449372          -12.22802
      6       2.00000          -0.437739          -11.91147
      7       0.00000          -0.050294           -1.36857
      8       0.00000          -0.000151           -0.00410
      9       0.00000           0.087843            2.39033
     10       0.00000           0.108946            2.96457
     11       0.00000           0.116805            3.17843
     12       0.00000           0.292618            7.96255
     13       0.00000           0.734343           19.98248
     14       0.00000           0.891937           24.27084
     15       0.00000           0.939790           25.57300
     16       0.00000           1.201298           32.68899
     17       0.00000           1.271592           34.60179
     18       0.00000           1.380423           37.56322
     19       0.00000           1.513604           41.18727
     20       0.00000           1.566399           42.62390
     21       0.00000           1.654637           45.02498

  What follows are estimated values for band gap, HOMO, LUMO, etc.
  | They are estimated on a discrete k-point grid and not necessarily exact.
  | For converged numbers, create a DOS and/or band structure plot on a denser k-grid.

  Highest occupied state (VBM) at     -7.97969053 eV (relative to internal zero)
  | Occupation number:      2.00000000
  | K-point:     454 at    0.333333    0.690476    0.000000 (in units of recip. lattice)

  Lowest unoccupied state (CBM) at    -7.53422713 eV (relative to internal zero)
  | Occupation number:      0.00000000
  | K-point:     454 at    0.333333    0.690476    0.000000 (in units of recip. lattice)

  The gap value is above 0.2 eV. Unless you are using a very sparse k-point grid,
  this system is most likely an insulator or a semiconductor.
  ESTIMATED overall HOMO-LUMO gap:      0.44546339 eV between HOMO at k-point 454 and LUMO at k-point 454
  | This appears to be a direct band gap.

  Total energy components:
  | Sum of eigenvalues            :         -45.66615260 Ha       -1242.63923700 eV
  | XC energy correction          :         -10.67321256 Ha        -290.43289080 eV
  | XC potential correction       :          13.70956340 Ha         373.05620112 eV
  | Free-atom electrostatic energy:         -33.51706092 Ha        -912.04563198 eV
  | Hartree energy correction     :          -0.11427013 Ha          -3.10944836 eV
  | Entropy correction            :          -0.00000000 Ha          -0.00000000 eV
  | ---------------------------
  | Total energy                  :         -76.26113280 Ha       -2075.17100702 eV
  | Total energy, T -> 0          :         -76.26113280 Ha       -2075.17100702 eV  <-- do not rely on this value for anything but (periodic) metals
  | Electronic free energy        :         -76.26113280 Ha       -2075.17100702 eV

  Derived energy quantities:
  | Kinetic energy                :          75.89061950 Ha        2065.08882712 eV
  | Electrostatic energy          :        -141.47853974 Ha       -3849.82694335 eV
  | Energy correction for multipole
  | error in Hartree potential    :          -0.00046503 Ha          -0.01265418 eV
  | Sum of eigenvalues per atom                           :        -621.31961850 eV
  | Total energy (T->0) per atom                          :       -1037.58550351 eV  <-- do not rely on this value for anything but (periodic) metals
  | Electronic free energy per atom                       :       -1037.58550351 eV
  Evaluating new KS density using the density matrix
  Evaluating density matrix
  Time summed over all CPUs for getting density from density matrix: real work        1.987 s, elapsed        2.050 s
  Integration grid: deviation in total charge (<rho> - N_e) =   0.000000E+00

  Self-consistency convergence accuracy:
  | Change of charge density      :  0.2191E+00
  | Change of unmixed KS density  :  0.7962E+01
  | Change of sum of eigenvalues  :  0.3178E+01 eV
  | Change of total energy        :  0.1202E+00 eV


------------------------------------------------------------
  End self-consistency iteration #     1       :  max(cpu_time)    wall_clock(cpu1)
  | Time for this iteration                     :        0.291 s           0.292 s
  | Charge density update                       :        0.131 s           0.131 s
  | Density mixing & preconditioning            :        0.026 s           0.026 s
  | Hartree multipole update                    :        0.001 s           0.001 s
  | Hartree multipole summation                 :        0.032 s           0.031 s
  | Integration                                 :        0.072 s           0.072 s
  | Solution of K.-S. eqns.                     :        0.029 s           0.030 s
  | Total energy evaluation                     :        0.000 s           0.000 s

  Partial memory accounting:
  | Current value for overall tracked memory usage:
  |   Minimum:        3.168 MB (on task  0)
  |   Maximum:        3.257 MB (on task  5)
  |   Average:        3.205 MB
  | Peak value for overall tracked memory usage:
  |   Minimum:       10.718 MB (on task  1 after allocating gradient_basis_wave)
  |   Maximum:       11.180 MB (on task 12 after allocating gradient_basis_wave)
  |   Average:       10.978 MB
  | Largest tracked array allocation so far:
  |   Minimum:        2.575 MB (hamiltonian_shell on task  1)
  |   Maximum:        2.820 MB (hamiltonian_shell on task 12)
  |   Average:        2.733 MB
  Note:  These values currently only include a subset of arrays which are explicitly tracked.
  The "true" memory usage will be greater.
------------------------------------------------------------

------------------------------------------------------------
          Begin self-consistency iteration #    2

  Date     :  20260729, Time     :  215846.875
------------------------------------------------------------
  Pulay mixing of updated and previous charge densities.
  Available memory per node after mixing [GB]:    125.53
  Renormalizing the density to the exact electron count on the 3D integration grid.
  | Formal number of electrons (from input files) :      12.0000000000
  | Integrated number of electrons on 3D grid     :      11.9955598286
  | Charge integration error                      :      -0.0044401714
  | Normalization factor for density and gradient :       1.0003701512

  Evaluating partitioned Hartree potential by multipole expansion.
  | Original multipole sum: apparent total charge =  -0.240443E-14
  | Sum of charges compensated after spline to logarithmic grids =   0.715601E-06
  | Analytical far-field extrapolation by fixed multipoles:
  | Hartree multipole sum: apparent total charge =  -0.202316E-14
  Summing up the Hartree potential.
  Time summed over all CPUs for potential: real work        0.031 s, elapsed        0.033 s
  | RMS charge density error from multipole expansion :   0.587731E-02
  | Average real-space part of the electrostatic potential :     -0.01430209 eV

  Integrating Hamiltonian matrix: batch-based integration.
  Time summed over all CPUs for integration: real work        1.051 s, elapsed        1.131 s

  Updating Kohn-Sham eigenvalues and eigenvectors using ELSI and the (modified) LAPACK eigensolver.
  Starting LAPACK eigensolver
  Finished Cholesky decomposition
  | Time :     0.001 s
  Finished transformation to standard eigenproblem
  | Time :     0.000 s
  Finished solving standard eigenproblem
  | Time :     0.000 s
  Finished back-transformation of eigenvectors
  | Time :     0.000 s

  Obtaining occupation numbers and electronic chemical potential using ELSI.
  | Note that, for insulating systems, the printed 'chemical potential' value is not uniquely defined.
  | It can be anywhere in the energy gap, as long as it correctly separates occupied and unoccupied states.
  | In systems with a gap, the physically relevant chemical potential is the VBM or HOMO.

  | Chemical potential (Fermi level):    -4.68856345 eV
  What follows are estimated values for band gap, HOMO, LUMO, etc.
  | They are estimated on a discrete k-point grid and not necessarily exact.
  | For converged numbers, create a DOS and/or band structure plot on a denser k-grid.

  Highest occupied state (VBM) at     -4.86312234 eV (relative to internal zero)
  | Occupation number:      2.00000000
  | K-point:     454 at    0.333333    0.690476    0.000000 (in units of recip. lattice)

  Lowest unoccupied state (CBM) at    -4.51400456 eV (relative to internal zero)
  | Occupation number:      0.00000000
  | K-point:     454 at    0.333333    0.690476    0.000000 (in units of recip. lattice)

  The gap value is above 0.2 eV. Unless you are using a very sparse k-point grid,
  this system is most likely an insulator or a semiconductor.
  ESTIMATED overall HOMO-LUMO gap:      0.34911778 eV between HOMO at k-point 454 and LUMO at k-point 454
  | This appears to be a direct band gap.

  Checking to see if s.c.f. parameters should be adjusted.
  The system likely has a gap. Increased the default Pulay mixing parameter (charge_mix_param). Value:   0.200000 .
  Kept the default occupation width. Value:   0.010000 eV.

  Total energy components:
  | Sum of eigenvalues            :         -43.76190443 Ha       -1190.82200803 eV
  | XC energy correction          :         -10.79364048 Ha        -293.70990138 eV
  | XC potential correction       :          13.86469652 Ha         377.27758806 eV
  | Free-atom electrostatic energy:         -33.51706092 Ha        -912.04563198 eV
  | Hartree energy correction     :          -2.02055023 Ha         -54.98196911 eV
  | Entropy correction            :          -0.00000000 Ha          -0.00000000 eV
  | ---------------------------
  | Total energy                  :         -76.22845954 Ha       -2074.28192245 eV
  | Total energy, T -> 0          :         -76.22845954 Ha       -2074.28192245 eV  <-- do not rely on this value for anything but (periodic) metals
  | Electronic free energy        :         -76.22845954 Ha       -2074.28192245 eV

  Derived energy quantities:
  | Kinetic energy                :          76.14975471 Ha        2072.14025490 eV
  | Electrostatic energy          :        -141.58457376 Ha       -3852.71227596 eV
  | Energy correction for multipole
  | error in Hartree potential    :          -0.00815643 Ha          -0.22194764 eV
  | Sum of eigenvalues per atom                           :        -595.41100402 eV
  | Total energy (T->0) per atom                          :       -1037.14096122 eV  <-- do not rely on this value for anything but (periodic) metals
  | Electronic free energy per atom                       :       -1037.14096122 eV
  Evaluating new KS density using the density matrix
  Evaluating density matrix
  Time summed over all CPUs for getting density from density matrix: real work        1.966 s, elapsed        2.035 s
  Integration grid: deviation in total charge (<rho> - N_e) =  -3.552714E-15

  Self-consistency convergence accuracy:
  | Change of charge density      :  0.2069E+00
  | Change of unmixed KS density  :  0.3530E-02
  | Change of sum of eigenvalues  :  0.5182E+02 eV
  | Change of total energy        :  0.8891E+00 eV


------------------------------------------------------------
  End self-consistency iteration #     2       :  max(cpu_time)    wall_clock(cpu1)
  | Time for this iteration                     :        0.294 s           0.293 s
  | Charge density update                       :        0.130 s           0.130 s
  | Density mixing & preconditioning            :        0.025 s           0.025 s
  | Hartree multipole update                    :        0.001 s           0.000 s
  | Hartree multipole summation                 :        0.036 s           0.037 s
  | Integration                                 :        0.072 s           0.071 s
  | Solution of K.-S. eqns.                     :        0.029 s           0.029 s
  | Total energy evaluation                     :        0.000 s           0.001 s

  Partial memory accounting:
  | Current value for overall tracked memory usage:
  |   Minimum:        3.169 MB (on task  0)
  |   Maximum:        3.258 MB (on task  5)
  |   Average:        3.206 MB
  | Peak value for overall tracked memory usage:
  |   Minimum:       10.719 MB (on task  1 after allocating gradient_basis_wave)
  |   Maximum:       11.181 MB (on task 12 after allocating gradient_basis_wave)
  |   Average:       10.979 MB
  | Largest tracked array allocation so far:
  |   Minimum:        2.575 MB (hamiltonian_shell on task  1)
  |   Maximum:        2.820 MB (hamiltonian_shell on task 12)
  |   Average:        2.733 MB
  Note:  These values currently only include a subset of arrays which are explicitly tracked.
  The "true" memory usage will be greater.
------------------------------------------------------------

------------------------------------------------------------
          Begin self-consistency iteration #    3

  Date     :  20260729, Time     :  215847.169
------------------------------------------------------------
  Pulay mixing of updated and previous charge densities.
  Available memory per node after mixing [GB]:    125.53
  Renormalizing the density to the exact electron count on the 3D integration grid.
  | Formal number of electrons (from input files) :      12.0000000000
  | Integrated number of electrons on 3D grid     :      12.0004810910
  | Charge integration error                      :       0.0004810910
  | Normalization factor for density and gradient :       0.9999599107

  Evaluating partitioned Hartree potential by multipole expansion.
  | Original multipole sum: apparent total charge =   0.285334E-14
  | Sum of charges compensated after spline to logarithmic grids =   0.727833E-06
  | Analytical far-field extrapolation by fixed multipoles:
  | Hartree multipole sum: apparent total charge =   0.289638E-14
  Summing up the Hartree potential.
  Time summed over all CPUs for potential: real work        0.031 s, elapsed        0.033 s
  | RMS charge density error from multipole expansion :   0.621465E-02
  | Average real-space part of the electrostatic potential :     -0.00332904 eV

  Integrating Hamiltonian matrix: batch-based integration.
  Time summed over all CPUs for integration: real work        1.062 s, elapsed        1.131 s

  Updating Kohn-Sham eigenvalues and eigenvectors using ELSI and the (modified) LAPACK eigensolver.
  Starting LAPACK eigensolver
  Finished Cholesky decomposition
  | Time :     0.000 s
  Finished transformation to standard eigenproblem
  | Time :     0.000 s
  Finished solving standard eigenproblem
  | Time :     0.000 s
  Finished back-transformation of eigenvectors
  | Time :     0.000 s

  Obtaining occupation numbers and electronic chemical potential using ELSI.
  | Note that, for insulating systems, the printed 'chemical potential' value is not uniquely defined.
  | It can be anywhere in the energy gap, as long as it correctly separates occupied and unoccupied states.
  | In systems with a gap, the physically relevant chemical potential is the VBM or HOMO.

  | Chemical potential (Fermi level):    -4.90496831 eV
  What follows are estimated values for band gap, HOMO, LUMO, etc.
  | They are estimated on a discrete k-point grid and not necessarily exact.
  | For converged numbers, create a DOS and/or band structure plot on a denser k-grid.

  Highest occupied state (VBM) at     -5.08864693 eV (relative to internal zero)
  | Occupation number:      2.00000000
  | K-point:     454 at    0.333333    0.690476    0.000000 (in units of recip. lattice)

  Lowest unoccupied state (CBM) at    -4.72128968 eV (relative to internal zero)
  | Occupation number:      0.00000000
  | K-point:     454 at    0.333333    0.690476    0.000000 (in units of recip. lattice)

  The gap value is above 0.2 eV. Unless you are using a very sparse k-point grid,
  this system is most likely an insulator or a semiconductor.
  ESTIMATED overall HOMO-LUMO gap:      0.36735725 eV between HOMO at k-point 454 and LUMO at k-point 454
  | This appears to be a direct band gap.

  Total energy components:
  | Sum of eigenvalues            :         -43.90415742 Ha       -1194.69290882 eV
  | XC energy correction          :         -10.78112604 Ha        -293.36936592 eV
  | XC potential correction       :          13.84889490 Ha         376.84760401 eV
  | Free-atom electrostatic energy:         -33.51706092 Ha        -912.04563198 eV
  | Hartree energy correction     :          -1.87479937 Ha         -51.01588652 eV
  | Entropy correction            :          -0.00000000 Ha          -0.00000000 eV
  | ---------------------------
  | Total energy                  :         -76.22824885 Ha       -2074.27618924 eV
  | Total energy, T -> 0          :         -76.22824885 Ha       -2074.27618924 eV  <-- do not rely on this value for anything but (periodic) metals
  | Electronic free energy        :         -76.22824885 Ha       -2074.27618924 eV

  Derived energy quantities:
  | Kinetic energy                :          76.03468870 Ha        2069.00914963 eV
  | Electrostatic energy          :        -141.48181152 Ha       -3849.91597295 eV
  | Energy correction for multipole
  | error in Hartree potential    :          -0.00858820 Ha          -0.23369694 eV
  | Sum of eigenvalues per atom                           :        -597.34645441 eV
  | Total energy (T->0) per atom                          :       -1037.13809462 eV  <-- do not rely on this value for anything but (periodic) metals
  | Electronic free energy per atom                       :       -1037.13809462 eV
  Evaluating new KS density using the density matrix
  Evaluating density matrix
  Time summed over all CPUs for getting density from density matrix: real work        1.968 s, elapsed        2.023 s
  Integration grid: deviation in total charge (<rho> - N_e) =  -3.552714E-15

  Self-consistency convergence accuracy:
  | Change of charge density      :  0.3248E-01
  | Change of unmixed KS density  :  0.5773E-01
  | Change of sum of eigenvalues  : -0.3871E+01 eV
  | Change of total energy        :  0.5733E-02 eV


------------------------------------------------------------
  End self-consistency iteration #     3       :  max(cpu_time)    wall_clock(cpu1)
  | Time for this iteration                     :        0.294 s           0.293 s
  | Charge density update                       :        0.130 s           0.130 s
  | Density mixing & preconditioning            :        0.026 s           0.025 s
  | Hartree multipole update                    :        0.001 s           0.001 s
  | Hartree multipole summation                 :        0.036 s           0.036 s
  | Integration                                 :        0.072 s           0.072 s
  | Solution of K.-S. eqns.                     :        0.029 s           0.029 s
  | Total energy evaluation                     :        0.000 s           0.000 s

  Partial memory accounting:
  | Current value for overall tracked memory usage:
  |   Minimum:        3.169 MB (on task  0)
  |   Maximum:        3.259 MB (on task  5)
  |   Average:        3.206 MB
  | Peak value for overall tracked memory usage:
  |   Minimum:       10.719 MB (on task  1 after allocating gradient_basis_wave)
  |   Maximum:       11.181 MB (on task 12 after allocating gradient_basis_wave)
  |   Average:       10.979 MB
  | Largest tracked array allocation so far:
  |   Minimum:        2.575 MB (hamiltonian_shell on task  1)
  |   Maximum:        2.820 MB (hamiltonian_shell on task 12)
  |   Average:        2.733 MB
  Note:  These values currently only include a subset of arrays which are explicitly tracked.
  The "true" memory usage will be greater.
------------------------------------------------------------

------------------------------------------------------------
          Begin self-consistency iteration #    4

  Date     :  20260729, Time     :  215847.462
------------------------------------------------------------
  Pulay mixing of updated and previous charge densities.
  Available memory per node after mixing [GB]:    125.53
  Renormalizing the density to the exact electron count on the 3D integration grid.
  | Formal number of electrons (from input files) :      12.0000000000
  | Integrated number of electrons on 3D grid     :      12.0002103730
  | Charge integration error                      :       0.0002103730
  | Normalization factor for density and gradient :       0.9999824692

  Evaluating partitioned Hartree potential by multipole expansion.
  | Original multipole sum: apparent total charge =  -0.621554E-14
  | Sum of charges compensated after spline to logarithmic grids =   0.764114E-06
  | Analytical far-field extrapolation by fixed multipoles:
  | Hartree multipole sum: apparent total charge =  -0.610178E-14
  Summing up the Hartree potential.
  Time summed over all CPUs for potential: real work        0.031 s, elapsed        0.033 s
  | RMS charge density error from multipole expansion :   0.705534E-02
  | Average real-space part of the electrostatic potential :      0.00985011 eV

  Integrating Hamiltonian matrix: batch-based integration.
  Time summed over all CPUs for integration: real work        1.061 s, elapsed        1.132 s

  Updating Kohn-Sham eigenvalues and eigenvectors using ELSI and the (modified) LAPACK eigensolver.
  Starting LAPACK eigensolver
  Finished Cholesky decomposition
  | Time :     0.000 s
  Finished transformation to standard eigenproblem
  | Time :     0.000 s
  Finished solving standard eigenproblem
  | Time :     0.000 s
  Finished back-transformation of eigenvectors
  | Time :     0.000 s

  Obtaining occupation numbers and electronic chemical potential using ELSI.
  | Note that, for insulating systems, the printed 'chemical potential' value is not uniquely defined.
  | It can be anywhere in the energy gap, as long as it correctly separates occupied and unoccupied states.
  | In systems with a gap, the physically relevant chemical potential is the VBM or HOMO.

  | Chemical potential (Fermi level):    -5.00830989 eV
  What follows are estimated values for band gap, HOMO, LUMO, etc.
  | They are estimated on a discrete k-point grid and not necessarily exact.
  | For converged numbers, create a DOS and/or band structure plot on a denser k-grid.

  Highest occupied state (VBM) at     -5.20876723 eV (relative to internal zero)
  | Occupation number:      2.00000000
  | K-point:     454 at    0.333333    0.690476    0.000000 (in units of recip. lattice)

  Lowest unoccupied state (CBM) at    -4.80785255 eV (relative to internal zero)
  | Occupation number:      0.00000000
  | K-point:     454 at    0.333333    0.690476    0.000000 (in units of recip. lattice)

  The gap value is above 0.2 eV. Unless you are using a very sparse k-point grid,
  this system is most likely an insulator or a semiconductor.
  ESTIMATED overall HOMO-LUMO gap:      0.40091468 eV between HOMO at k-point 454 and LUMO at k-point 454
  | This appears to be a direct band gap.

  Total energy components:
  | Sum of eigenvalues            :         -43.98231070 Ha       -1196.81956772 eV
  | XC energy correction          :         -10.77213841 Ha        -293.12480019 eV
  | XC potential correction       :          13.83769827 Ha         376.54292812 eV
  | Free-atom electrostatic energy:         -33.51706092 Ha        -912.04563198 eV
  | Hartree energy correction     :          -1.79444956 Ha         -48.82945688 eV
  | Entropy correction            :          -0.00000000 Ha          -0.00000000 eV
  | ---------------------------
  | Total energy                  :         -76.22826132 Ha       -2074.27652865 eV
  | Total energy, T -> 0          :         -76.22826132 Ha       -2074.27652865 eV  <-- do not rely on this value for anything but (periodic) metals
  | Electronic free energy        :         -76.22826132 Ha       -2074.27652865 eV

  Derived energy quantities:
  | Kinetic energy                :          75.88382444 Ha        2064.90392418 eV
  | Electrostatic energy          :        -141.33994735 Ha       -3846.05565264 eV
  | Energy correction for multipole
  | error in Hartree potential    :          -0.00971920 Ha          -0.26447282 eV
  | Sum of eigenvalues per atom                           :        -598.40978386 eV
  | Total energy (T->0) per atom                          :       -1037.13826433 eV  <-- do not rely on this value for anything but (periodic) metals
  | Electronic free energy per atom                       :       -1037.13826433 eV
  Evaluating new KS density using the density matrix
  Evaluating density matrix
  Time summed over all CPUs for getting density from density matrix: real work        1.988 s, elapsed        2.046 s
  Integration grid: deviation in total charge (<rho> - N_e) =  -1.776357E-15

  Self-consistency convergence accuracy:
  | Change of charge density      :  0.1983E-01
  | Change of unmixed KS density  :  0.6746E-02
  | Change of sum of eigenvalues  : -0.2127E+01 eV
  | Change of total energy        : -0.3394E-03 eV


------------------------------------------------------------
  End self-consistency iteration #     4       :  max(cpu_time)    wall_clock(cpu1)
  | Time for this iteration                     :        0.295 s           0.296 s
  | Charge density update                       :        0.131 s           0.132 s
  | Density mixing & preconditioning            :        0.025 s           0.026 s
  | Hartree multipole update                    :        0.001 s           0.000 s
  | Hartree multipole summation                 :        0.036 s           0.037 s
  | Integration                                 :        0.072 s           0.071 s
  | Solution of K.-S. eqns.                     :        0.029 s           0.030 s
  | Total energy evaluation                     :        0.000 s           0.000 s

  Partial memory accounting:
  | Current value for overall tracked memory usage:
  |   Minimum:        3.169 MB (on task  0)
  |   Maximum:        3.259 MB (on task  5)
  |   Average:        3.206 MB
  | Peak value for overall tracked memory usage:
  |   Minimum:       10.720 MB (on task  1 after allocating gradient_basis_wave)
  |   Maximum:       11.181 MB (on task 12 after allocating gradient_basis_wave)
  |   Average:       10.980 MB
  | Largest tracked array allocation so far:
  |   Minimum:        2.575 MB (hamiltonian_shell on task  1)
  |   Maximum:        2.820 MB (hamiltonian_shell on task 12)
  |   Average:        2.733 MB
  Note:  These values currently only include a subset of arrays which are explicitly tracked.
  The "true" memory usage will be greater.
------------------------------------------------------------

------------------------------------------------------------
          Begin self-consistency iteration #    5

  Date     :  20260729, Time     :  215847.758
------------------------------------------------------------
  Pulay mixing of updated and previous charge densities.
  Available memory per node after mixing [GB]:    125.53
  Renormalizing the density to the exact electron count on the 3D integration grid.
  | Formal number of electrons (from input files) :      12.0000000000
  | Integrated number of electrons on 3D grid     :      11.9993706321
  | Charge integration error                      :      -0.0006293679
  | Normalization factor for density and gradient :       1.0000524501

  Evaluating partitioned Hartree potential by multipole expansion.
  | Original multipole sum: apparent total charge =   0.507482E-14
  | Sum of charges compensated after spline to logarithmic grids =   0.781433E-06
  | Analytical far-field extrapolation by fixed multipoles:
  | Hartree multipole sum: apparent total charge =   0.502409E-14
  Summing up the Hartree potential.
  Time summed over all CPUs for potential: real work        0.031 s, elapsed        0.033 s
  | RMS charge density error from multipole expansion :   0.724392E-02
  | Average real-space part of the electrostatic potential :      0.00665129 eV

  Integrating Hamiltonian matrix: batch-based integration.
  Time summed over all CPUs for integration: real work        1.062 s, elapsed        1.123 s

  Updating Kohn-Sham eigenvalues and eigenvectors using ELSI and the (modified) LAPACK eigensolver.
  Starting LAPACK eigensolver
  Finished Cholesky decomposition
  | Time :     0.000 s
  Finished transformation to standard eigenproblem
  | Time :     0.000 s
  Finished solving standard eigenproblem
  | Time :     0.001 s
  Finished back-transformation of eigenvectors
  | Time :     0.000 s

  Obtaining occupation numbers and electronic chemical potential using ELSI.
  | Note that, for insulating systems, the printed 'chemical potential' value is not uniquely defined.
  | It can be anywhere in the energy gap, as long as it correctly separates occupied and unoccupied states.
  | In systems with a gap, the physically relevant chemical potential is the VBM or HOMO.

  | Chemical potential (Fermi level):    -4.96184719 eV
  What follows are estimated values for band gap, HOMO, LUMO, etc.
  | They are estimated on a discrete k-point grid and not necessarily exact.
  | For converged numbers, create a DOS and/or band structure plot on a denser k-grid.

  Highest occupied state (VBM) at     -5.15815975 eV (relative to internal zero)
  | Occupation number:      2.00000000
  | K-point:     454 at    0.333333    0.690476    0.000000 (in units of recip. lattice)

  Lowest unoccupied state (CBM) at    -4.76553464 eV (relative to internal zero)
  | Occupation number:      0.00000000
  | K-point:     454 at    0.333333    0.690476    0.000000 (in units of recip. lattice)

  The gap value is above 0.2 eV. Unless you are using a very sparse k-point grid,
  this system is most likely an insulator or a semiconductor.
  ESTIMATED overall HOMO-LUMO gap:      0.39262512 eV between HOMO at k-point 454 and LUMO at k-point 454
  | This appears to be a direct band gap.

  Total energy components:
  | Sum of eigenvalues            :         -43.96801976 Ha       -1196.43069126 eV
  | XC energy correction          :         -10.77174174 Ha        -293.11400610 eV
  | XC potential correction       :          13.83728346 Ha         376.53164068 eV
  | Free-atom electrostatic energy:         -33.51706092 Ha        -912.04563198 eV
  | Hartree energy correction     :          -1.80873001 Ha         -49.21804765 eV
  | Entropy correction            :          -0.00000000 Ha          -0.00000000 eV
  | ---------------------------
  | Total energy                  :         -76.22826896 Ha       -2074.27673631 eV
  | Total energy, T -> 0          :         -76.22826896 Ha       -2074.27673631 eV  <-- do not rely on this value for anything but (periodic) metals
  | Electronic free energy        :         -76.22826896 Ha       -2074.27673631 eV

  Derived energy quantities:
  | Kinetic energy                :          75.86203235 Ha        2064.31093136 eV
  | Electrostatic energy          :        -141.31855957 Ha       -3845.47366157 eV
  | Energy correction for multipole
  | error in Hartree potential    :          -0.01005913 Ha          -0.27372285 eV
  | Sum of eigenvalues per atom                           :        -598.21534563 eV
  | Total energy (T->0) per atom                          :       -1037.13836815 eV  <-- do not rely on this value for anything but (periodic) metals
  | Electronic free energy per atom                       :       -1037.13836815 eV
  Evaluating new KS density using the density matrix
  Evaluating density matrix
  Time summed over all CPUs for getting density from density matrix: real work        1.967 s, elapsed        2.031 s
  Integration grid: deviation in total charge (<rho> - N_e) =   0.000000E+00

  Self-consistency convergence accuracy:
  | Change of charge density      :  0.3867E-02
  | Change of unmixed KS density  :  0.6710E-02
  | Change of sum of eigenvalues  :  0.3889E+00 eV
  | Change of total energy        : -0.2077E-03 eV


------------------------------------------------------------
  End self-consistency iteration #     5       :  max(cpu_time)    wall_clock(cpu1)
  | Time for this iteration                     :        0.293 s           0.293 s
  | Charge density update                       :        0.130 s           0.130 s
  | Density mixing & preconditioning            :        0.025 s           0.025 s
  | Hartree multipole update                    :        0.001 s           0.000 s
  | Hartree multipole summation                 :        0.036 s           0.037 s
  | Integration                                 :        0.071 s           0.071 s
  | Solution of K.-S. eqns.                     :        0.029 s           0.029 s
  | Total energy evaluation                     :        0.000 s           0.001 s

  Partial memory accounting:
  | Current value for overall tracked memory usage:
  |   Minimum:        3.169 MB (on task  0)
  |   Maximum:        3.259 MB (on task  5)
  |   Average:        3.207 MB
  | Peak value for overall tracked memory usage:
  |   Minimum:       10.720 MB (on task  1 after allocating gradient_basis_wave)
  |   Maximum:       11.182 MB (on task 12 after allocating gradient_basis_wave)
  |   Average:       10.980 MB
  | Largest tracked array allocation so far:
  |   Minimum:        2.575 MB (hamiltonian_shell on task  1)
  |   Maximum:        2.820 MB (hamiltonian_shell on task 12)
  |   Average:        2.733 MB
  Note:  These values currently only include a subset of arrays which are explicitly tracked.
  The "true" memory usage will be greater.
------------------------------------------------------------

------------------------------------------------------------
          Begin self-consistency iteration #    6

  Date     :  20260729, Time     :  215848.051
------------------------------------------------------------
  Pulay mixing of updated and previous charge densities.
  Available memory per node after mixing [GB]:    125.53
  Renormalizing the density to the exact electron count on the 3D integration grid.
  | Formal number of electrons (from input files) :      12.0000000000
  | Integrated number of electrons on 3D grid     :      11.9999637093
  | Charge integration error                      :      -0.0000362907
  | Normalization factor for density and gradient :       1.0000030242

  Evaluating partitioned Hartree potential by multipole expansion.
  | Original multipole sum: apparent total charge =  -0.475198E-14
  | Sum of charges compensated after spline to logarithmic grids =   0.783232E-06
  | Analytical far-field extrapolation by fixed multipoles:
  | Hartree multipole sum: apparent total charge =  -0.475351E-14
  Summing up the Hartree potential.
  Time summed over all CPUs for potential: real work        0.031 s, elapsed        0.033 s
  | RMS charge density error from multipole expansion :   0.725329E-02
  | Average real-space part of the electrostatic potential :      0.00609256 eV

  Integrating Hamiltonian matrix: batch-based integration.
  Time summed over all CPUs for integration: real work        1.048 s, elapsed        1.116 s

  Updating Kohn-Sham eigenvalues and eigenvectors using ELSI and the (modified) LAPACK eigensolver.
  Starting LAPACK eigensolver
  Finished Cholesky decomposition
  | Time :     0.000 s
  Finished transformation to standard eigenproblem
  | Time :     0.000 s
  Finished solving standard eigenproblem
  | Time :     0.000 s
  Finished back-transformation of eigenvectors
  | Time :     0.000 s

  Obtaining occupation numbers and electronic chemical potential using ELSI.
  | Note that, for insulating systems, the printed 'chemical potential' value is not uniquely defined.
  | It can be anywhere in the energy gap, as long as it correctly separates occupied and unoccupied states.
  | In systems with a gap, the physically relevant chemical potential is the VBM or HOMO.

  | Chemical potential (Fermi level):    -4.95402917 eV
  What follows are estimated values for band gap, HOMO, LUMO, etc.
  | They are estimated on a discrete k-point grid and not necessarily exact.
  | For converged numbers, create a DOS and/or band structure plot on a denser k-grid.

  Highest occupied state (VBM) at     -5.15072386 eV (relative to internal zero)
  | Occupation number:      2.00000000
  | K-point:     454 at    0.333333    0.690476    0.000000 (in units of recip. lattice)

  Lowest unoccupied state (CBM) at    -4.75733449 eV (relative to internal zero)
  | Occupation number:      0.00000000
  | K-point:     454 at    0.333333    0.690476    0.000000 (in units of recip. lattice)

  The gap value is above 0.2 eV. Unless you are using a very sparse k-point grid,
  this system is most likely an insulator or a semiconductor.
  ESTIMATED overall HOMO-LUMO gap:      0.39338937 eV between HOMO at k-point 454 and LUMO at k-point 454
  | This appears to be a direct band gap.

  Total energy components:
  | Sum of eigenvalues            :         -43.96469782 Ha       -1196.34029684 eV
  | XC energy correction          :         -10.77182721 Ha        -293.11633211 eV
  | XC potential correction       :          13.83738757 Ha         376.53447353 eV
  | Free-atom electrostatic energy:         -33.51706092 Ha        -912.04563198 eV
  | Hartree energy correction     :          -1.81207099 Ha         -49.30896051 eV
  | Entropy correction            :          -0.00000000 Ha          -0.00000000 eV
  | ---------------------------
  | Total energy                  :         -76.22826938 Ha       -2074.27674791 eV
  | Total energy, T -> 0          :         -76.22826938 Ha       -2074.27674791 eV  <-- do not rely on this value for anything but (periodic) metals
  | Electronic free energy        :         -76.22826938 Ha       -2074.27674791 eV

  Derived energy quantities:
  | Kinetic energy                :          75.86084206 Ha        2064.27854186 eV
  | Electrostatic energy          :        -141.31728423 Ha       -3845.43895766 eV
  | Energy correction for multipole
  | error in Hartree potential    :          -0.01008354 Ha          -0.27438710 eV
  | Sum of eigenvalues per atom                           :        -598.17014842 eV
  | Total energy (T->0) per atom                          :       -1037.13837396 eV  <-- do not rely on this value for anything but (periodic) metals
  | Electronic free energy per atom                       :       -1037.13837396 eV
  Evaluating new KS density using the density matrix
  Evaluating density matrix
  Time summed over all CPUs for getting density from density matrix: real work        1.976 s, elapsed        2.035 s
  Integration grid: deviation in total charge (<rho> - N_e) =  -1.776357E-15

  Self-consistency convergence accuracy:
  | Change of charge density      :  0.8791E-03
  | Change of unmixed KS density  :  0.1377E-02
  | Change of sum of eigenvalues  :  0.9039E-01 eV
  | Change of total energy        : -0.1161E-04 eV


------------------------------------------------------------
  End self-consistency iteration #     6       :  max(cpu_time)    wall_clock(cpu1)
  | Time for this iteration                     :        0.293 s           0.293 s
  | Charge density update                       :        0.131 s           0.130 s
  | Density mixing & preconditioning            :        0.025 s           0.025 s
  | Hartree multipole update                    :        0.001 s           0.001 s
  | Hartree multipole summation                 :        0.036 s           0.036 s
  | Integration                                 :        0.071 s           0.071 s
  | Solution of K.-S. eqns.                     :        0.029 s           0.029 s
  | Total energy evaluation                     :        0.000 s           0.001 s

  Partial memory accounting:
  | Current value for overall tracked memory usage:
  |   Minimum:        3.170 MB (on task  0)
  |   Maximum:        3.259 MB (on task  5)
  |   Average:        3.207 MB
  | Peak value for overall tracked memory usage:
  |   Minimum:       10.720 MB (on task  1 after allocating gradient_basis_wave)
  |   Maximum:       11.182 MB (on task 12 after allocating gradient_basis_wave)
  |   Average:       10.980 MB
  | Largest tracked array allocation so far:
  |   Minimum:        2.575 MB (hamiltonian_shell on task  1)
  |   Maximum:        2.820 MB (hamiltonian_shell on task 12)
  |   Average:        2.733 MB
  Note:  These values currently only include a subset of arrays which are explicitly tracked.
  The "true" memory usage will be greater.
------------------------------------------------------------

------------------------------------------------------------
          Begin self-consistency iteration #    7

  Date     :  20260729, Time     :  215848.344
------------------------------------------------------------
  Pulay mixing of updated and previous charge densities.
  Available memory per node after mixing [GB]:    125.53
  Renormalizing the density to the exact electron count on the 3D integration grid.
  | Formal number of electrons (from input files) :      12.0000000000
  | Integrated number of electrons on 3D grid     :      11.9999935384
  | Charge integration error                      :      -0.0000064616
  | Normalization factor for density and gradient :       1.0000005385

  Evaluating partitioned Hartree potential by multipole expansion.
  | Original multipole sum: apparent total charge =  -0.602645E-14
  | Sum of charges compensated after spline to logarithmic grids =   0.784933E-06
  | Analytical far-field extrapolation by fixed multipoles:
  | Hartree multipole sum: apparent total charge =  -0.612484E-14
  Summing up the Hartree potential.
  Time summed over all CPUs for potential: real work        0.031 s, elapsed        0.032 s
  | RMS charge density error from multipole expansion :   0.725339E-02
  | Average real-space part of the electrostatic potential :      0.00553843 eV

  Integrating Hamiltonian matrix: batch-based integration.
  Time summed over all CPUs for integration: real work        1.077 s, elapsed        1.140 s

  Updating Kohn-Sham eigenvalues and eigenvectors using ELSI and the (modified) LAPACK eigensolver.
  Starting LAPACK eigensolver
  Finished Cholesky decomposition
  | Time :     0.000 s
  Finished transformation to standard eigenproblem
  | Time :     0.000 s
  Finished solving standard eigenproblem
  | Time :     0.000 s
  Finished back-transformation of eigenvectors
  | Time :     0.000 s

  Obtaining occupation numbers and electronic chemical potential using ELSI.
  | Note that, for insulating systems, the printed 'chemical potential' value is not uniquely defined.
  | It can be anywhere in the energy gap, as long as it correctly separates occupied and unoccupied states.
  | In systems with a gap, the physically relevant chemical potential is the VBM or HOMO.

  | Chemical potential (Fermi level):    -4.94237889 eV
  What follows are estimated values for band gap, HOMO, LUMO, etc.
  | They are estimated on a discrete k-point grid and not necessarily exact.
  | For converged numbers, create a DOS and/or band structure plot on a denser k-grid.

  Highest occupied state (VBM) at     -5.13964812 eV (relative to internal zero)
  | Occupation number:      2.00000000
  | K-point:     454 at    0.333333    0.690476    0.000000 (in units of recip. lattice)

  Lowest unoccupied state (CBM) at    -4.74510967 eV (relative to internal zero)
  | Occupation number:      0.00000000
  | K-point:     454 at    0.333333    0.690476    0.000000 (in units of recip. lattice)

  The gap value is above 0.2 eV. Unless you are using a very sparse k-point grid,
  this system is most likely an insulator or a semiconductor.
  ESTIMATED overall HOMO-LUMO gap:      0.39453846 eV between HOMO at k-point 454 and LUMO at k-point 454
  | This appears to be a direct band gap.

  Total energy components:
  | Sum of eigenvalues            :         -43.95810436 Ha       -1196.16087964 eV
  | XC energy correction          :         -10.77224314 Ha        -293.12764996 eV
  | XC potential correction       :          13.83790536 Ha         376.54856337 eV
  | Free-atom electrostatic energy:         -33.51706092 Ha        -912.04563198 eV
  | Hartree energy correction     :          -1.81876584 Ha         -49.49113657 eV
  | Entropy correction            :          -0.00000000 Ha          -0.00000000 eV
  | ---------------------------
  | Total energy                  :         -76.22826890 Ha       -2074.27673479 eV
  | Total energy, T -> 0          :         -76.22826890 Ha       -2074.27673479 eV  <-- do not rely on this value for anything but (periodic) metals
  | Electronic free energy        :         -76.22826890 Ha       -2074.27673479 eV

  Derived energy quantities:
  | Kinetic energy                :          75.86241405 Ha        2064.32131772 eV
  | Electrostatic energy          :        -141.31843981 Ha       -3845.47040255 eV
  | Energy correction for multipole
  | error in Hartree potential    :          -0.01009214 Ha          -0.27462106 eV
  | Sum of eigenvalues per atom                           :        -598.08043982 eV
  | Total energy (T->0) per atom                          :       -1037.13836740 eV  <-- do not rely on this value for anything but (periodic) metals
  | Electronic free energy per atom                       :       -1037.13836740 eV
  Evaluating new KS density using the density matrix
  Evaluating density matrix
  Time summed over all CPUs for getting density from density matrix: real work        1.999 s, elapsed        2.060 s
  Integration grid: deviation in total charge (<rho> - N_e) =  -1.776357E-15

  Self-consistency convergence accuracy:
  | Change of charge density      :  0.6216E-03
  | Change of unmixed KS density  :  0.1327E-03
  | Change of sum of eigenvalues  :  0.1794E+00 eV
  | Change of total energy        :  0.1312E-04 eV


------------------------------------------------------------
  End self-consistency iteration #     7       :  max(cpu_time)    wall_clock(cpu1)
  | Time for this iteration                     :        0.296 s           0.296 s
  | Charge density update                       :        0.132 s           0.132 s
  | Density mixing & preconditioning            :        0.025 s           0.025 s
  | Hartree multipole update                    :        0.001 s           0.001 s
  | Hartree multipole summation                 :        0.036 s           0.036 s
  | Integration                                 :        0.072 s           0.072 s
  | Solution of K.-S. eqns.                     :        0.030 s           0.029 s
  | Total energy evaluation                     :        0.000 s           0.000 s

  Partial memory accounting:
  | Current value for overall tracked memory usage:
  |   Minimum:        3.170 MB (on task  0)
  |   Maximum:        3.260 MB (on task  5)
  |   Average:        3.207 MB
  | Peak value for overall tracked memory usage:
  |   Minimum:       10.720 MB (on task  1 after allocating gradient_basis_wave)
  |   Maximum:       11.182 MB (on task 12 after allocating gradient_basis_wave)
  |   Average:       10.980 MB
  | Largest tracked array allocation so far:
  |   Minimum:        2.575 MB (hamiltonian_shell on task  1)
  |   Maximum:        2.820 MB (hamiltonian_shell on task 12)
  |   Average:        2.733 MB
  Note:  These values currently only include a subset of arrays which are explicitly tracked.
  The "true" memory usage will be greater.
------------------------------------------------------------

------------------------------------------------------------
          Begin self-consistency iteration #    8

  Date     :  20260729, Time     :  215848.640
------------------------------------------------------------
  Pulay mixing of updated and previous charge densities.
  Available memory per node after mixing [GB]:    125.53
  Renormalizing the density to the exact electron count on the 3D integration grid.
  | Formal number of electrons (from input files) :      12.0000000000
  | Integrated number of electrons on 3D grid     :      11.9999832180
  | Charge integration error                      :      -0.0000167820
  | Normalization factor for density and gradient :       1.0000013985

  Evaluating partitioned Hartree potential by multipole expansion.
  | Original multipole sum: apparent total charge =  -0.827099E-15
  | Sum of charges compensated after spline to logarithmic grids =   0.786059E-06
  | Analytical far-field extrapolation by fixed multipoles:
  | Hartree multipole sum: apparent total charge =  -0.893205E-15
  Summing up the Hartree potential.
  Time summed over all CPUs for potential: real work        0.031 s, elapsed        0.032 s
  | RMS charge density error from multipole expansion :   0.725457E-02
  | Average real-space part of the electrostatic potential :      0.00521314 eV

  Integrating Hamiltonian matrix: batch-based integration.
  Time summed over all CPUs for integration: real work        1.053 s, elapsed        1.117 s

  Updating Kohn-Sham eigenvalues and eigenvectors using ELSI and the (modified) LAPACK eigensolver.
  Starting LAPACK eigensolver
  Finished Cholesky decomposition
  | Time :     0.000 s
  Finished transformation to standard eigenproblem
  | Time :     0.000 s
  Finished solving standard eigenproblem
  | Time :     0.000 s
  Finished back-transformation of eigenvectors
  | Time :     0.000 s

  Obtaining occupation numbers and electronic chemical potential using ELSI.
  | Note that, for insulating systems, the printed 'chemical potential' value is not uniquely defined.
  | It can be anywhere in the energy gap, as long as it correctly separates occupied and unoccupied states.
  | In systems with a gap, the physically relevant chemical potential is the VBM or HOMO.

  | Chemical potential (Fermi level):    -4.93672404 eV
  What follows are estimated values for band gap, HOMO, LUMO, etc.
  | They are estimated on a discrete k-point grid and not necessarily exact.
  | For converged numbers, create a DOS and/or band structure plot on a denser k-grid.

  Highest occupied state (VBM) at     -5.13419922 eV (relative to internal zero)
  | Occupation number:      2.00000000
  | K-point:     454 at    0.333333    0.690476    0.000000 (in units of recip. lattice)

  Lowest unoccupied state (CBM) at    -4.73924885 eV (relative to internal zero)
  | Occupation number:      0.00000000
  | K-point:     454 at    0.333333    0.690476    0.000000 (in units of recip. lattice)

  The gap value is above 0.2 eV. Unless you are using a very sparse k-point grid,
  this system is most likely an insulator or a semiconductor.
  ESTIMATED overall HOMO-LUMO gap:      0.39495037 eV between HOMO at k-point 454 and LUMO at k-point 454
  | This appears to be a direct band gap.

  Total energy components:
  | Sum of eigenvalues            :         -43.95518327 Ha       -1196.08139273 eV
  | XC energy correction          :         -10.77240110 Ha        -293.13194838 eV
  | XC potential correction       :          13.83810357 Ha         376.55395705 eV
  | Free-atom electrostatic energy:         -33.51706092 Ha        -912.04563198 eV
  | Hartree energy correction     :          -1.82172731 Ha         -49.57172230 eV
  | Entropy correction            :          -0.00000000 Ha          -0.00000000 eV
  | ---------------------------
  | Total energy                  :         -76.22826903 Ha       -2074.27673835 eV
  | Total energy, T -> 0          :         -76.22826903 Ha       -2074.27673835 eV  <-- do not rely on this value for anything but (periodic) metals
  | Electronic free energy        :         -76.22826903 Ha       -2074.27673835 eV

  Derived energy quantities:
  | Kinetic energy                :          75.86273394 Ha        2064.33002256 eV
  | Electrostatic energy          :        -141.31860187 Ha       -3845.47481253 eV
  | Energy correction for multipole
  | error in Hartree potential    :          -0.01009995 Ha          -0.27483357 eV
  | Sum of eigenvalues per atom                           :        -598.04069637 eV
  | Total energy (T->0) per atom                          :       -1037.13836918 eV  <-- do not rely on this value for anything but (periodic) metals
  | Electronic free energy per atom                       :       -1037.13836918 eV
  Evaluating new KS density using the density matrix
  Evaluating density matrix
  Time summed over all CPUs for getting density from density matrix: real work        1.990 s, elapsed        2.060 s
  Integration grid: deviation in total charge (<rho> - N_e) =  -1.776357E-15

  Self-consistency convergence accuracy:
  | Change of charge density      :  0.1697E-03
  | Change of unmixed KS density  :  0.2220E-03
  | Change of sum of eigenvalues  :  0.7949E-01 eV
  | Change of total energy        : -0.3561E-05 eV


------------------------------------------------------------
  End self-consistency iteration #     8       :  max(cpu_time)    wall_clock(cpu1)
  | Time for this iteration                     :        0.294 s           0.295 s
  | Charge density update                       :        0.132 s           0.132 s
  | Density mixing & preconditioning            :        0.025 s           0.025 s
  | Hartree multipole update                    :        0.001 s           0.001 s
  | Hartree multipole summation                 :        0.036 s           0.036 s
  | Integration                                 :        0.071 s           0.071 s
  | Solution of K.-S. eqns.                     :        0.029 s           0.029 s
  | Total energy evaluation                     :        0.000 s           0.001 s

  Partial memory accounting:
  | Current value for overall tracked memory usage:
  |   Minimum:        3.170 MB (on task  0)
  |   Maximum:        3.260 MB (on task  5)
  |   Average:        3.207 MB
  | Peak value for overall tracked memory usage:
  |   Minimum:       10.721 MB (on task  1 after allocating gradient_basis_wave)
  |   Maximum:       11.182 MB (on task 12 after allocating gradient_basis_wave)
  |   Average:       10.981 MB
  | Largest tracked array allocation so far:
  |   Minimum:        2.575 MB (hamiltonian_shell on task  1)
  |   Maximum:        2.820 MB (hamiltonian_shell on task 12)
  |   Average:        2.733 MB
  Note:  These values currently only include a subset of arrays which are explicitly tracked.
  The "true" memory usage will be greater.
------------------------------------------------------------

------------------------------------------------------------
          Begin self-consistency iteration #    9

  Date     :  20260729, Time     :  215848.935
------------------------------------------------------------
  Pulay mixing of updated and previous charge densities.
  Available memory per node after mixing [GB]:    125.53
  Renormalizing the density to the exact electron count on the 3D integration grid.
  | Formal number of electrons (from input files) :      12.0000000000
  | Integrated number of electrons on 3D grid     :      11.9999999548
  | Charge integration error                      :      -0.0000000452
  | Normalization factor for density and gradient :       1.0000000038

  Evaluating partitioned Hartree potential by multipole expansion.
  | Original multipole sum: apparent total charge =   0.310393E-14
  | Sum of charges compensated after spline to logarithmic grids =   0.786137E-06
  | Analytical far-field extrapolation by fixed multipoles:
  | Hartree multipole sum: apparent total charge =   0.312238E-14
  Summing up the Hartree potential.
  Time summed over all CPUs for potential: real work        0.031 s, elapsed        0.032 s
  | RMS charge density error from multipole expansion :   0.725420E-02
  | Average real-space part of the electrostatic potential :      0.00519968 eV

  Integrating Hamiltonian matrix: batch-based integration.
  Time summed over all CPUs for integration: real work        1.071 s, elapsed        1.129 s

  Updating Kohn-Sham eigenvalues and eigenvectors using ELSI and the (modified) LAPACK eigensolver.
  Starting LAPACK eigensolver
  Finished Cholesky decomposition
  | Time :     0.001 s
  Finished transformation to standard eigenproblem
  | Time :     0.000 s
  Finished solving standard eigenproblem
  | Time :     0.000 s
  Finished back-transformation of eigenvectors
  | Time :     0.000 s

  Obtaining occupation numbers and electronic chemical potential using ELSI.
  | Note that, for insulating systems, the printed 'chemical potential' value is not uniquely defined.
  | It can be anywhere in the energy gap, as long as it correctly separates occupied and unoccupied states.
  | In systems with a gap, the physically relevant chemical potential is the VBM or HOMO.

  | Chemical potential (Fermi level):    -4.93645231 eV
  What follows are estimated values for band gap, HOMO, LUMO, etc.
  | They are estimated on a discrete k-point grid and not necessarily exact.
  | For converged numbers, create a DOS and/or band structure plot on a denser k-grid.

  Highest occupied state (VBM) at     -5.13392129 eV (relative to internal zero)
  | Occupation number:      2.00000000
  | K-point:     454 at    0.333333    0.690476    0.000000 (in units of recip. lattice)

  Lowest unoccupied state (CBM) at    -4.73898332 eV (relative to internal zero)
  | Occupation number:      0.00000000
  | K-point:     454 at    0.333333    0.690476    0.000000 (in units of recip. lattice)

  The gap value is above 0.2 eV. Unless you are using a very sparse k-point grid,
  this system is most likely an insulator or a semiconductor.
  ESTIMATED overall HOMO-LUMO gap:      0.39493797 eV between HOMO at k-point 454 and LUMO at k-point 454
  | This appears to be a direct band gap.

  Total energy components:
  | Sum of eigenvalues            :         -43.95503184 Ha       -1196.07727207 eV
  | XC energy correction          :         -10.77240989 Ha        -293.13218758 eV
  | XC potential correction       :          13.83811501 Ha         376.55426832 eV
  | Free-atom electrostatic energy:         -33.51706092 Ha        -912.04563198 eV
  | Hartree energy correction     :          -1.82188138 Ha         -49.57591465 eV
  | Entropy correction            :          -0.00000000 Ha          -0.00000000 eV
  | ---------------------------
  | Total energy                  :         -76.22826902 Ha       -2074.27673795 eV
  | Total energy, T -> 0          :         -76.22826902 Ha       -2074.27673795 eV  <-- do not rely on this value for anything but (periodic) metals
  | Electronic free energy        :         -76.22826902 Ha       -2074.27673795 eV

  Derived energy quantities:
  | Kinetic energy                :          75.86277653 Ha        2064.33118153 eV
  | Electrostatic energy          :        -141.31863566 Ha       -3845.47573190 eV
  | Energy correction for multipole
  | error in Hartree potential    :          -0.01009967 Ha          -0.27482587 eV
  | Sum of eigenvalues per atom                           :        -598.03863603 eV
  | Total energy (T->0) per atom                          :       -1037.13836898 eV  <-- do not rely on this value for anything but (periodic) metals
  | Electronic free energy per atom                       :       -1037.13836898 eV
  Evaluating new KS density using the density matrix
  Evaluating density matrix
  Time summed over all CPUs for getting density from density matrix: real work        1.995 s, elapsed        2.049 s
  Integration grid: deviation in total charge (<rho> - N_e) =   0.000000E+00

  Self-consistency convergence accuracy:
  | Change of charge density      :  0.1455E-04
  | Change of unmixed KS density  :  0.8418E-04
  | Change of sum of eigenvalues  :  0.4121E-02 eV
  | Change of total energy        :  0.4011E-06 eV


------------------------------------------------------------
  End self-consistency iteration #     9       :  max(cpu_time)    wall_clock(cpu1)
  | Time for this iteration                     :        0.295 s           0.295 s
  | Charge density update                       :        0.132 s           0.132 s
  | Density mixing & preconditioning            :        0.025 s           0.025 s
  | Hartree multipole update                    :        0.001 s           0.001 s
  | Hartree multipole summation                 :        0.036 s           0.036 s
  | Integration                                 :        0.071 s           0.071 s
  | Solution of K.-S. eqns.                     :        0.030 s           0.030 s
  | Total energy evaluation                     :        0.000 s           0.000 s

  Partial memory accounting:
  | Current value for overall tracked memory usage:
  |   Minimum:        3.171 MB (on task  0)
  |   Maximum:        3.260 MB (on task  5)
  |   Average:        3.208 MB
  | Peak value for overall tracked memory usage:
  |   Minimum:       10.721 MB (on task  1 after allocating gradient_basis_wave)
  |   Maximum:       11.183 MB (on task 12 after allocating gradient_basis_wave)
  |   Average:       10.981 MB
  | Largest tracked array allocation so far:
  |   Minimum:        2.575 MB (hamiltonian_shell on task  1)
  |   Maximum:        2.820 MB (hamiltonian_shell on task 12)
  |   Average:        2.733 MB
  Note:  These values currently only include a subset of arrays which are explicitly tracked.
  The "true" memory usage will be greater.
------------------------------------------------------------

------------------------------------------------------------
          Begin self-consistency iteration #   10

  Date     :  20260729, Time     :  215849.230
------------------------------------------------------------
  Pulay mixing of updated and previous charge densities.
  Available memory per node after mixing [GB]:    125.53
  Renormalizing the density to the exact electron count on the 3D integration grid.
  | Formal number of electrons (from input files) :      12.0000000000
  | Integrated number of electrons on 3D grid     :      12.0000012123
  | Charge integration error                      :       0.0000012123
  | Normalization factor for density and gradient :       0.9999998990

  Evaluating partitioned Hartree potential by multipole expansion.
  | Original multipole sum: apparent total charge =   0.466588E-14
  | Sum of charges compensated after spline to logarithmic grids =   0.786116E-06
  | Analytical far-field extrapolation by fixed multipoles:
  | Hartree multipole sum: apparent total charge =   0.438147E-14
  Summing up the Hartree potential.
  Time summed over all CPUs for potential: real work        0.031 s, elapsed        0.033 s
  | RMS charge density error from multipole expansion :   0.725387E-02
  | Average real-space part of the electrostatic potential :      0.00521453 eV

  Integrating Hamiltonian matrix: batch-based integration.
  Time summed over all CPUs for integration: real work        1.084 s, elapsed        1.150 s

  Updating Kohn-Sham eigenvalues and eigenvectors using ELSI and the (modified) LAPACK eigensolver.
  Starting LAPACK eigensolver
  Finished Cholesky decomposition
  | Time :     0.000 s
  Finished transformation to standard eigenproblem
  | Time :     0.000 s
  Finished solving standard eigenproblem
  | Time :     0.001 s
  Finished back-transformation of eigenvectors
  | Time :     0.000 s

  Obtaining occupation numbers and electronic chemical potential using ELSI.
  | Note that, for insulating systems, the printed 'chemical potential' value is not uniquely defined.
  | It can be anywhere in the energy gap, as long as it correctly separates occupied and unoccupied states.
  | In systems with a gap, the physically relevant chemical potential is the VBM or HOMO.

  | Chemical potential (Fermi level):    -4.93677497 eV
  What follows are estimated values for band gap, HOMO, LUMO, etc.
  | They are estimated on a discrete k-point grid and not necessarily exact.
  | For converged numbers, create a DOS and/or band structure plot on a denser k-grid.

  Highest occupied state (VBM) at     -5.13423538 eV (relative to internal zero)
  | Occupation number:      2.00000000
  | K-point:     454 at    0.333333    0.690476    0.000000 (in units of recip. lattice)

  Lowest unoccupied state (CBM) at    -4.73931457 eV (relative to internal zero)
  | Occupation number:      0.00000000
  | K-point:     454 at    0.333333    0.690476    0.000000 (in units of recip. lattice)

  The gap value is above 0.2 eV. Unless you are using a very sparse k-point grid,
  this system is most likely an insulator or a semiconductor.
  ESTIMATED overall HOMO-LUMO gap:      0.39492081 eV between HOMO at k-point 454 and LUMO at k-point 454
  | This appears to be a direct band gap.

  Total energy components:
  | Sum of eigenvalues            :         -43.95521653 Ha       -1196.08229765 eV
  | XC energy correction          :         -10.77239689 Ha        -293.13183378 eV
  | XC potential correction       :          13.83809889 Ha         376.55382975 eV
  | Free-atom electrostatic energy:         -33.51706092 Ha        -912.04563198 eV
  | Hartree energy correction     :          -1.82169356 Ha         -49.57080399 eV
  | Entropy correction            :          -0.00000000 Ha          -0.00000000 eV
  | ---------------------------
  | Total energy                  :         -76.22826900 Ha       -2074.27673765 eV
  | Total energy, T -> 0          :         -76.22826900 Ha       -2074.27673765 eV  <-- do not rely on this value for anything but (periodic) metals
  | Electronic free energy        :         -76.22826900 Ha       -2074.27673765 eV

  Derived energy quantities:
  | Kinetic energy                :          75.86272175 Ha        2064.32969075 eV
  | Electrostatic energy          :        -141.31859386 Ha       -3845.47459462 eV
  | Energy correction for multipole
  | error in Hartree potential    :          -0.01009901 Ha          -0.27480804 eV
  | Sum of eigenvalues per atom                           :        -598.04114883 eV
  | Total energy (T->0) per atom                          :       -1037.13836883 eV  <-- do not rely on this value for anything but (periodic) metals
  | Electronic free energy per atom                       :       -1037.13836883 eV
  Evaluating new KS density using the density matrix
  Evaluating density matrix
  Time summed over all CPUs for getting density from density matrix: real work        2.026 s, elapsed        2.084 s
  Integration grid: deviation in total charge (<rho> - N_e) =   0.000000E+00

  Self-consistency convergence accuracy:
  | Change of charge density      :  0.1028E-04
  | Change of unmixed KS density  :  0.3820E-05
  | Change of sum of eigenvalues  : -0.5026E-02 eV
  | Change of total energy        :  0.2991E-06 eV


------------------------------------------------------------
  End self-consistency iteration #    10       :  max(cpu_time)    wall_clock(cpu1)
  | Time for this iteration                     :        0.299 s           0.299 s
  | Charge density update                       :        0.134 s           0.134 s
  | Density mixing & preconditioning            :        0.025 s           0.025 s
  | Hartree multipole update                    :        0.001 s           0.001 s
  | Hartree multipole summation                 :        0.036 s           0.036 s
  | Integration                                 :        0.073 s           0.073 s
  | Solution of K.-S. eqns.                     :        0.030 s           0.030 s
  | Total energy evaluation                     :        0.000 s           0.000 s

  Partial memory accounting:
  | Current value for overall tracked memory usage:
  |   Minimum:        3.171 MB (on task  0)
  |   Maximum:        3.260 MB (on task  5)
  |   Average:        3.208 MB
  | Peak value for overall tracked memory usage:
  |   Minimum:       10.721 MB (on task  1 after allocating gradient_basis_wave)
  |   Maximum:       11.183 MB (on task 12 after allocating gradient_basis_wave)
  |   Average:       10.981 MB
  | Largest tracked array allocation so far:
  |   Minimum:        2.575 MB (hamiltonian_shell on task  1)
  |   Maximum:        2.820 MB (hamiltonian_shell on task 12)
  |   Average:        2.733 MB
  Note:  These values currently only include a subset of arrays which are explicitly tracked.
  The "true" memory usage will be greater.
------------------------------------------------------------

------------------------------------------------------------
          Begin self-consistency iteration #   11

  Date     :  20260729, Time     :  215849.529
------------------------------------------------------------
  Pulay mixing of updated and previous charge densities.
  Available memory per node after mixing [GB]:    125.53
  Renormalizing the density to the exact electron count on the 3D integration grid.
  | Formal number of electrons (from input files) :      12.0000000000
  | Integrated number of electrons on 3D grid     :      11.9999998142
  | Charge integration error                      :      -0.0000001858
  | Normalization factor for density and gradient :       1.0000000155

  Evaluating partitioned Hartree potential by multipole expansion.
  | Original multipole sum: apparent total charge =  -0.592037E-14
  | Sum of charges compensated after spline to logarithmic grids =   0.786123E-06
  | Analytical far-field extrapolation by fixed multipoles:
  | Hartree multipole sum: apparent total charge =  -0.573589E-14
  Summing up the Hartree potential.
  Time summed over all CPUs for potential: real work        0.031 s, elapsed        0.033 s
  | RMS charge density error from multipole expansion :   0.725386E-02
  | Average real-space part of the electrostatic potential :      0.00521142 eV

  Integrating Hamiltonian matrix: batch-based integration.
  Time summed over all CPUs for integration: real work        1.065 s, elapsed        1.124 s

  Updating Kohn-Sham eigenvalues and eigenvectors using ELSI and the (modified) LAPACK eigensolver.
  Starting LAPACK eigensolver
  Finished Cholesky decomposition
  | Time :     0.000 s
  Finished transformation to standard eigenproblem
  | Time :     0.000 s
  Finished solving standard eigenproblem
  | Time :     0.001 s
  Finished back-transformation of eigenvectors
  | Time :     0.000 s

  Obtaining occupation numbers and electronic chemical potential using ELSI.
  | Note that, for insulating systems, the printed 'chemical potential' value is not uniquely defined.
  | It can be anywhere in the energy gap, as long as it correctly separates occupied and unoccupied states.
  | In systems with a gap, the physically relevant chemical potential is the VBM or HOMO.

  | Chemical potential (Fermi level):    -4.93673039 eV
  What follows are estimated values for band gap, HOMO, LUMO, etc.
  | They are estimated on a discrete k-point grid and not necessarily exact.
  | For converged numbers, create a DOS and/or band structure plot on a denser k-grid.

  Highest occupied state (VBM) at     -5.13419260 eV (relative to internal zero)
  | Occupation number:      2.00000000
  | K-point:     454 at    0.333333    0.690476    0.000000 (in units of recip. lattice)

  Lowest unoccupied state (CBM) at    -4.73926817 eV (relative to internal zero)
  | Occupation number:      0.00000000
  | K-point:     454 at    0.333333    0.690476    0.000000 (in units of recip. lattice)

  The gap value is above 0.2 eV. Unless you are using a very sparse k-point grid,
  this system is most likely an insulator or a semiconductor.
  ESTIMATED overall HOMO-LUMO gap:      0.39492442 eV between HOMO at k-point 454 and LUMO at k-point 454
  | This appears to be a direct band gap.

  Total energy components:
  | Sum of eigenvalues            :         -43.95519288 Ha       -1196.08165412 eV
  | XC energy correction          :         -10.77239814 Ha        -293.13186770 eV
  | XC potential correction       :          13.83810049 Ha         376.55387318 eV
  | Free-atom electrostatic energy:         -33.51706092 Ha        -912.04563198 eV
  | Hartree energy correction     :          -1.82171756 Ha         -49.57145707 eV
  | Entropy correction            :          -0.00000000 Ha          -0.00000000 eV
  | ---------------------------
  | Total energy                  :         -76.22826901 Ha       -2074.27673769 eV
  | Total energy, T -> 0          :         -76.22826901 Ha       -2074.27673769 eV  <-- do not rely on this value for anything but (periodic) metals
  | Electronic free energy        :         -76.22826901 Ha       -2074.27673769 eV

  Derived energy quantities:
  | Kinetic energy                :          75.86272555 Ha        2064.32979406 eV
  | Electrostatic energy          :        -141.31859642 Ha       -3845.47466405 eV
  | Energy correction for multipole
  | error in Hartree potential    :          -0.01009904 Ha          -0.27480883 eV
  | Sum of eigenvalues per atom                           :        -598.04082706 eV
  | Total energy (T->0) per atom                          :       -1037.13836885 eV  <-- do not rely on this value for anything but (periodic) metals
  | Electronic free energy per atom                       :       -1037.13836885 eV
  Preliminary charge convergence reached. Turning off preconditioner.


  Self-consistency convergence accuracy:
  | Change of charge density      :  0.1595E-05
  | Change of unmixed KS density  :  0.4564E-05
  | Change of sum of eigenvalues  :  0.6435E-03 eV
  | Change of total energy        : -0.3773E-07 eV

  Writing Kohn-Sham eigenvalues.
  K-point:       1 at    0.000000    0.000000    0.000000 (in units of recip. lattice)

  State    Occupation    Eigenvalue [Ha]    Eigenvalue [eV]
      1       2.00000         -10.152040         -276.25106
      2       2.00000          -9.780928         -266.15260
      3       2.00000          -0.884114          -24.05797
      4       2.00000          -0.448717          -12.21021
      5       2.00000          -0.304696           -8.29120
      6       2.00000          -0.286361           -7.79229
      7       0.00000           0.081877            2.22798
      8       0.00000           0.129922            3.53534
      9       0.00000           0.155379            4.22807
     10       0.00000           0.213617            5.81280
     11       0.00000           0.248836            6.77116
     12       0.00000           0.366495            9.97283
     13       0.00000           0.841323           22.89356
     14       0.00000           0.993727           27.04069
     15       0.00000           1.047643           28.50782
     16       0.00000           1.300990           35.40174
     17       0.00000           1.366187           37.17585
     18       0.00000           1.519682           41.35266
     19       0.00000           1.652963           44.97940
     20       0.00000           1.657825           45.11171
     21       0.00000           1.748602           47.58188

  What follows are estimated values for band gap, HOMO, LUMO, etc.
  | They are estimated on a discrete k-point grid and not necessarily exact.
  | For converged numbers, create a DOS and/or band structure plot on a denser k-grid.

  Highest occupied state (VBM) at     -5.13419260 eV (relative to internal zero)
  | Occupation number:      2.00000000
  | K-point:     454 at    0.333333    0.690476    0.000000 (in units of recip. lattice)

  Lowest unoccupied state (CBM) at    -4.73926817 eV (relative to internal zero)
  | Occupation number:      0.00000000
  | K-point:     454 at    0.333333    0.690476    0.000000 (in units of recip. lattice)

  The gap value is above 0.2 eV. Unless you are using a very sparse k-point grid,
  this system is most likely an insulator or a semiconductor.
  ESTIMATED overall HOMO-LUMO gap:      0.39492442 eV between HOMO at k-point 454 and LUMO at k-point 454
  | This appears to be a direct band gap.

  | Chemical Potential                          :    -4.93673039 eV
  | Note that, for insulating systems, the printed 'chemical potential' value is not uniquely defined.
  | It can be anywhere in the energy gap, as long as it correctly separates occupied and unoccupied states.
  | In systems with a gap, the physically relevant chemical potential is the VBM or HOMO.

  Self-consistency cycle converged.

  Performing RI decomposition of the total charge density.

 --------------------------------------------
  Constructing auxiliary basis (full product) ...

  Product basis:
  | charge radius: extent of product basis function
  | field radius: extent of its Coulomb potential
  | Species   l  charge radius    field radius  multipol momen
  |    C_A    0     2.604206 A      2.604206 A       -1.038092E-16 a.u.
  |    C_A    0     3.285118 A      3.285118 A       -1.519407E-16 a.u.
  |    C_A    0     3.245202 A      3.245202 A       -2.836211E-17 a.u.
  |    C_A    0     3.712303 A      3.712303 A        8.626348E-17 a.u.
  |    C_A    0     5.291898 A      5.291898 A       -2.008404E-16 a.u.
  |    C_A    0     5.422879 A      5.489581 A       -1.209247E-16 a.u.
  |    C_A    0     5.422879 A      5.489581 A        2.238873E-16 a.u.
  |    C_A    0     5.422879 A  4.379628E+12 A            0.658607 a.u.
  |    C_A    1     3.667196 A      3.667196 A       -9.675976E-18 a.u.
  |    C_A    1     5.291898 A      5.291898 A        1.620812E-16 a.u.
  |    C_A    1     5.422879 A      5.422879 A       -3.710853E-16 a.u.
  |    C_A    1     5.356988 A      5.422879 A       -2.638201E-16 a.u.
  |    C_A    1     5.422879 A      5.422879 A       -1.051771E-15 a.u.
  |    C_A    1     5.422879 A      5.489581 A        2.672504E-16 a.u.
  |    C_A    1     5.422879 A      5.489581 A        1.413224E-16 a.u.
  |    C_A    1     5.489581 A  2.936619E+06 A            2.450661 a.u.
  |    C_A    2     5.356988 A      5.356988 A        1.297164E-15 a.u.
  |    C_A    2     5.422879 A      5.422879 A       -2.908554E-15 a.u.
  |    C_A    2     5.422879 A      5.422879 A       -6.952615E-16 a.u.
  |    C_A    2     5.356988 A      5.356988 A       -1.475394E-15 a.u.
  |    C_A    2     5.422879 A      5.422879 A       -2.765738E-15 a.u.
  |    C_A    2     5.422879 A      5.489581 A        3.083378E-15 a.u.
  |    C_A    2     5.489581 A  2.786541E+04 A           11.619384 a.u.
  |    C_A    3     4.459458 A      4.459458 A       -2.392764E-16 a.u.
  |    C_A    3     4.514309 A      4.514309 A        1.149564E-15 a.u.
  |    C_A    3     4.459458 A      4.459458 A        1.863706E-15 a.u.
  |    C_A    3     4.514309 A      4.514309 A        2.972989E-16 a.u.
  |    C_A    3     4.569835 A      4.569835 A        9.151913E-16 a.u.
  |    C_A    3     4.569835 A  2.236879E+03 A           25.407129 a.u.
  |    C_A    4     4.351746 A      4.351746 A       -8.631191E-17 a.u.
  |    C_A    4     4.351746 A      4.351746 A       -4.513409E-16 a.u.
  |    C_A    4     4.405273 A      4.405273 A       -2.434816E-16 a.u.
  |    C_A    4     4.405273 A      4.405273 A        3.863349E-15 a.u.
  |    C_A    4     4.405273 A      4.405273 A        7.556914E-16 a.u.
  |    C_A    4     4.459458 A  5.289832E+02 A           79.431666 a.u.
  |    C_A    5     4.144065 A      4.144065 A       -7.207397E-16 a.u.
  |    C_A    5     4.246636 A      4.246636 A       -1.274032E-14 a.u.
  |    C_A    5     4.298870 A      4.298870 A        1.326256E-14 a.u.
  |    C_A    5     4.246636 A      4.246636 A        3.301314E-14 a.u.
  |    C_A    5     4.298870 A  1.980450E+02 A          218.658797 a.u.
  |    C_A    6     4.043972 A      4.043972 A       -1.264914E-15 a.u.
  |    C_A    6     3.994835 A  6.484954E+01 A           33.031673 a.u.
  |    C_A    7     3.994835 A      3.994835 A       -1.717433E-14 a.u.
  |    C_A    7     3.946296 A  4.100603E+01 A          103.457632 a.u.
  |    C_A    8     3.850979 A  2.842558E+01 A          296.321979 a.u.
  |    C_B    0     2.615800 A      2.615800 A       -1.717301E-17 a.u.
  |    C_B    0     3.299743 A      3.299743 A        1.418638E-16 a.u.
  |    C_B    0     3.259649 A      3.259649 A        2.797403E-17 a.u.
  |    C_B    0     3.728830 A      3.728830 A       -2.108539E-16 a.u.
  |    C_B    0     5.315457 A      5.315457 A        3.353592E-16 a.u.
  |    C_B    0     5.447022 A      5.447022 A       -1.606784E-16 a.u.
  |    C_B    0     5.447022 A      5.514020 A       -1.491814E-16 a.u.
  |    C_B    0     5.447022 A  4.390837E+12 A            0.660292 a.u.
  |    C_B    1     3.683522 A      3.683522 A       -5.456879E-17 a.u.
  |    C_B    1     5.315457 A      5.315457 A        2.534204E-16 a.u.
  |    C_B    1     5.380837 A      5.380837 A        6.511358E-16 a.u.
  |    C_B    1     5.380837 A      5.380837 A        1.234357E-16 a.u.
  |    C_B    1     5.447022 A      5.447022 A        5.231478E-16 a.u.
  |    C_B    1     5.380837 A      5.380837 A        3.104862E-16 a.u.
  |    C_B    1     5.447022 A  2.656025E+06 A            2.004712 a.u.
  |    C_B    2     5.380837 A      5.380837 A       -7.178645E-16 a.u.
  |    C_B    2     5.380837 A      5.380837 A       -4.363858E-17 a.u.
  |    C_B    2     5.380837 A      5.380837 A        2.108698E-15 a.u.
  |    C_B    2     5.380837 A      5.380837 A       -1.495538E-15 a.u.
  |    C_B    2     5.447022 A      5.447022 A        6.886758E-16 a.u.
  |    C_B    2     5.447022 A      5.447022 A       -7.644612E-16 a.u.
  |    C_B    2     5.447022 A  2.782789E+04 A           11.572512 a.u.
  |    C_B    3     4.479311 A      4.479311 A       -2.436340E-16 a.u.
  |    C_B    3     4.479311 A      4.479311 A       -2.076706E-15 a.u.
  |    C_B    3     4.479311 A      4.479311 A       -8.433460E-16 a.u.
  |    C_B    3     4.534407 A      4.534407 A        1.663681E-15 a.u.
  |    C_B    3     4.590180 A      4.590180 A        7.448897E-15 a.u.
  |    C_B    3     4.590180 A  2.241476E+03 A           25.616611 a.u.
  |    C_B    4     4.318008 A      4.318008 A       -2.423765E-15 a.u.
  |    C_B    4     4.371120 A      4.371120 A        5.397400E-16 a.u.
  |    C_B    4     4.371120 A      4.371120 A        9.089354E-16 a.u.
  |    C_B    4     4.424885 A      4.424885 A       -4.172213E-15 a.u.
  |    C_B    4     4.424885 A      4.424885 A       -1.540796E-15 a.u.
  |    C_B    4     4.424885 A  5.292536E+02 A           79.634911 a.u.
  |    C_B    5     4.111938 A      4.111938 A       -2.347748E-15 a.u.
  |    C_B    5     4.213713 A      4.213713 A       -7.894910E-15 a.u.
  |    C_B    5     4.318008 A      4.318008 A        1.225214E-14 a.u.
  |    C_B    5     4.265542 A      4.265542 A        1.091574E-14 a.u.
  |    C_B    5     4.318008 A  1.982430E+02 A          219.973894 a.u.
  |    C_B    6     4.061975 A      4.061975 A        9.794440E-16 a.u.
  |    C_B    6     3.963864 A  6.484737E+01 A           33.023919 a.u.
  |    C_B    7     3.963864 A      3.963864 A       -3.053118E-14 a.u.
  |    C_B    7     3.963864 A  4.100212E+01 A          103.378775 a.u.
  |    C_B    8     3.868123 A  2.842619E+01 A          296.379215 a.u.

  | Shrink_full_auxil_basis : there are       89  radial auxiliary wave functions
                            accepted and      83 rejected.
  | Shrink_full_auxil_basis : there are totally                 579 partial auxiliary wave functions.
  | Largest number of auxiliary wave functions per atom:        291

  | Number of product basis functions per thread :    37
  | Minimal requirement for computer memory :           0.007 Gbs
  Minimal free memory per node after shrink_svd_auxil [GB]:    125.53
  Minimal free memory per node after allocate_basis_pairs [GB]:    125.53

  Basis pair condensation :       903  -->        903

------------------------------------------------------------
  End self-consistency iteration #    11       :  max(cpu_time)    wall_clock(cpu1)
  | Time for this iteration                     :        0.622 s           0.622 s
  | Charge density update                       :        0.000 s           0.000 s
  | Density mixing                              :        0.025 s           0.025 s
  | Hartree multipole update                    :        0.001 s           0.001 s
  | Hartree multipole summation                 :        0.037 s           0.037 s
  | Integration                                 :        0.071 s           0.071 s
  | Solution of K.-S. eqns.                     :        0.030 s           0.030 s
  | Total energy evaluation                     :        0.000 s           0.001 s

  Partial memory accounting:
  | Current value for overall tracked memory usage:
  |   Minimum:        3.171 MB (on task  0)
  |   Maximum:        3.260 MB (on task  5)
  |   Average:        3.208 MB
  | Peak value for overall tracked memory usage:
  |   Minimum:       10.721 MB (on task  1 after allocating gradient_basis_wave)
  |   Maximum:       11.183 MB (on task 12 after allocating gradient_basis_wave)
  |   Average:       10.981 MB
  | Largest tracked array allocation so far:
  |   Minimum:        2.575 MB (hamiltonian_shell on task  1)
  |   Maximum:        2.820 MB (hamiltonian_shell on task 12)
  |   Average:        2.733 MB
  Note:  These values currently only include a subset of arrays which are explicitly tracked.
  The "true" memory usage will be greater.
------------------------------------------------------------

  Energy and forces in a compact form:
  | Total energy uncorrected      :         -0.207427673769199E+04 eV
  | Total energy corrected        :         -0.207427673769199E+04 eV  <-- do not rely on this value for anything but (periodic) metals
  | Electronic free energy        :         -0.207427673769199E+04 eV

  ------------------------------------ 
  Start decomposition of the XC Energy 
  ------------------------------------ 
  X and C from original XC functional choice 
  Hartree-Fock Energy :          0.000000000 Ha              0.000000000 eV
  X Energy            :        -10.356702056 Ha           -281.820201799 eV
  C Energy            :         -0.415696081 Ha            -11.311665903 eV
  XC Energy w/o HF    :        -10.772398137 Ha           -293.131867703 eV
  Total XC Energy     :        -10.772398137 Ha           -293.131867703 eV
  ------------------------------------ 
  LDA X and C from self-consistent density 
  X Energy LDA        :         -9.389758303 Ha           -255.508323544 eV
  C Energy LDA        :         -0.793345313 Ha            -21.588024362 eV
  ------------------------------------ 
  End decomposition of the XC Energy 
  ------------------------------------ 

------------------------------------------------------------

------------------------------------------------------------------------------
  Final output of selected total energy values:

  The following output summarizes some interesting total energy values
  at the end of a run (AFTER all relaxation, molecular dynamics, etc.).

  | Total energy of the DFT / Hartree-Fock s.c.f. calculation      :          -2074.276737692 eV
  | Final zero-broadening corrected energy (caution - metals only) :          -2074.276737692 eV
  | For reference only, the value of 1 Hartree used in FHI-aims is :             27.211384500 eV
  | For reference only, the overall average (free atom contribution
  | + realspace contribution) of the electrostatic potential after
  | s.c.f. convergence is                                          :             -3.010648259 eV

  Before relying on these values, please be sure to understand exactly which
  total energy value is referred to by a given number. Different objects may
  all carry the same name 'total energy'. Definitions:

  Total energy of the DFT / Hartree-Fock s.c.f. calculation:
  | Note that this energy does not include ANY quantities calculated after the
  | s.c.f. cycle, in particular not ANY RPA, MP2, etc. many-body perturbation terms.

  Final zero-broadening corrected energy:
  | For metallic systems only, a broadening of the occupation numbers at the Fermi
  | level can be extrapolated back to zero broadening by an electron-gas inspired
  | formula. For all systems that are not real metals, this value can be
  | meaningless and should be avoided.

------------------------------------------------------------------------------
  Methods described in the following list of references were used in this FHI-aims run.
  If you publish the results, please make sure to cite these reference if they apply.
  FHI-aims is an academic code, and for our developers (often, Ph.D. students
  and postdocs), scientific credit in the community is essential.
  Thank you for helping us!

  For any use of FHI-aims, please cite:

    Volker Blum, Ralf Gehrke, Felix Hanke, Paula Havu, Ville Havu,
    Xinguo Ren, Karsten Reuter, and Matthias Scheffler
    'Ab initio molecular simulations with numeric atom-centered orbitals'
    Computer Physics Communications 180, 2175-2196 (2009)
    http://doi.org/10.1016/j.cpc.2009.06.022


  For Hartree-Fock, hybrid functionals, or many-body perturbation theory used in your run, please cite:

    Xinguo Ren, Patrick Rinke, Volker Blum, Juergen Wieferink, Alex Tkatchenko,
    Andrea Sanfilippo, Karsten Reuter, and Matthias Scheffler,
    'Resolution-of-identity approach to Hartree-Fock, hybrid density functionals,
    RPA, MP2, and GW with numeric atom-centered orbital basis functions'
    New Journal of Physics 14, 053020 (2012).
    http://doi.org/10.1088/1367-2630/14/5/053020


  The provided symmetry information was generated with SPGlib:

    Atsushi Togo, Yusuke Seto, Dimitar Pashov
    SPGlib 1.7.3 obtained from http://spglib.sourceforge.net
    Licence: New BSD license
    Copyright (C) 2008 Atsushi Togo


  The ELSI infrastructure was used in your run to solve the Kohn-Sham electronic structure.
  Please check out https://wordpress.elsi-interchange.org to learn more.
  If scalability is important for your project, please acknowledge ELSI by citing:

    V. W-z. Yu, F. Corsetti, A. Garcia, W. P. Huhn, M. Jacquelin, W. Jia,
    B. Lange, L. Lin, J. Lu, W. Mi, A. Seifitokaldani, A. Vazquez-Mayagoitia,
    C. Yang, H. Yang, and V. Blum
    'ELSI: A unified software interface for Kohn-Sham electronic structure solvers'
    Computer Physics Communications 222, 267-285 (2018).
    http://doi.org/10.1016/j.cpc.2017.09.007


  For the real-space grid partitioning and parallelization used in this calculation, please cite:

    Ville Havu, Volker Blum, Paula Havu, and Matthias Scheffler,
    'Efficient O(N) integration for all-electron electronic structure calculation'
    'using numerically tabulated basis functions'
    Journal of Computational Physics 228, 8367-8379 (2009).
    http://doi.org/10.1016/j.jcp.2009.08.008


  The high-level electronic structure method used in your calculation
  employed our efficient localized resolution of identity for the Coulomb operator.
  Some calculations, especially large-scale hybrid density functional theory,
  are only possible thanks to this development. For this feature, please cite:

    Arvid Ihrig, Juergen Wieferink, Igor Ying Zhang, Matti Ropo, Xinguo Ren,
    Patrick Rinke, Matthias Scheffler, and Volker Blum,
    'Accurate localized resolution of identity approach for linear-scaling
    hybrid density functionals and for many-body perturbation theory'
    New Journal of Physics 117, 093020 (2015).
    http://doi.org/10.1088/1367-2630/17/9/093020

  Of course, there are many other important community references, e.g., those cited in the
  above references. Our list is limited to references that describe implementations in the
  FHI-aims code. The reason is purely practical (length of this list) - please credit others as well.
------------------------------------------------------------
Warnings summary:

At least    0 warnings were raised during execution.

------------------------------------------------------------
          Leaving FHI-aims.
          Date     :  20260729, Time     :  215850.259

          Computational steps:
          | Number of self-consistency cycles          :           11
          | Number of SCF (re)initializations          :            1

          Detailed time accounting                     :  max(cpu_time)    wall_clock(cpu1)
          | Total time                                  :        4.184 s           4.185 s
          | Preparation time                            :        0.092 s           0.092 s
          | Boundary condition initalization            :        0.012 s           0.012 s
          | Grid partitioning                           :        0.022 s           0.022 s
          | Preloading free-atom quantities on grid     :        0.053 s           0.053 s
          | Free-atom superposition energy              :        0.005 s           0.005 s
          | Total time for integrations                 :        0.911 s           0.910 s
          | Product basis setup: Total time             :        0.000 s           0.000 s
          | Product basis: | 2-center integrations     :(       0.000 s)  (       0.000 s)
          | Product basis: | LVL 3-center & coefficient:(       0.000 s)  (       0.000 s)
          | Total time for solution of K.-S. equations  :        0.366 s           0.366 s
          | Total time for density update               :        1.446 s           1.445 s
          | Total time for mixing & preconditioning     :        0.276 s           0.277 s
          | Total time for Hartree multipole update     :        0.008 s           0.008 s
          | Total time for Hartree multipole sum        :        0.394 s           0.395 s
          | Total time for total energy evaluation      :        0.004 s           0.005 s
          | Total time for scaled ZORA corrections      :        0.000 s           0.000 s

          Partial memory accounting:
          | Residual value for overall tracked memory usage across tasks:     0.000000 MB (should be 0.000000 MB)
          | Peak values for overall tracked memory usage:
          |   Minimum:       10.721 MB (on task  1 after allocating gradient_basis_wave)
          |   Maximum:       11.183 MB (on task 12 after allocating gradient_basis_wave)
          |   Average:       10.981 MB
          | Largest tracked array allocation:
          |   Minimum:        2.575 MB (hamiltonian_shell on task  1)
          |   Maximum:        2.820 MB (hamiltonian_shell on task 12)
          |   Average:        2.733 MB
          Note:  These values currently only include a subset of arrays which are explicitly tracked.
          The "true" memory usage will be greater.

          Have a nice day.
------------------------------------------------------------
