------------------------------------------------------------
          Invoking FHI-aims ...

          When using FHI-aims, please cite the following reference:

            Volker Blum, Ralf Gehrke, Felix Hanke, Paula Havu,
            Ville Havu, Xinguo Ren, Karsten Reuter, and Matthias Scheffler,
            'Ab Initio Molecular Simulations with Numeric Atom-Centered Orbitals',
            Computer Physics Communications 180, 2175-2196 (2009)

          In addition, many other developments in FHI-aims are likely important for
          your particular application. If so, please cite them. A partial list of references
          is written at the end of this file. Thank you for giving credit to the authors
          of these developments.

          For general information about FHI-aims please find us at

            https://fhi-aims.org

          Online tutorials can be found at

            https://fhi-aims-club.gitlab.io/tutorials/tutorials-overview/

          For any questions about FHI-aims, please visit our slack channel at

            https://fhi-aims.slack.com

          and our main development and support site at

            https://aims-git.rz-berlin.mpg.de .

          The latter site, in particular, has a wiki to collect information, as well
          as an issue tracker to log discussions, suggest improvements, and report issues
          or bugs. https://aims-git.rz-berlin.mpg.de is also the main development site
          of the project and all new and updated code versions can be obtained there.
          Please send an email to aims-coordinators@ms1p.org and we will add
          you to these sites. They are for you and everyone is welcome there.

------------------------------------------------------------



  Date     :  20260729, Time     :  194659.633
  Time zero on CPU 1             :   0.761761000000000E+00  s.
  Internal wall clock time zero  :           554586419.633  s.

  FHI-aims created a unique identifier for this run for later identification
  aims_uuid : 9B73BA74-57C0-4FB5-A19F-0F4F3EB6C6CA

  Build configuration of the current instance of FHI-aims
  -------------------------------------------------------
  FHI-aims version      : 260331
  Commit number         : GITDIR-NOTFOUND
  CMake host system     : Linux-6.8.0-1050-aws
  CMake version         : 3.27.9
  OS Distribution       : Ubuntu 22.04.5 LTS
  Built on              : Intel(R) Xeon(R) Platinum 8488C
  Fortran compiler      : /home/ubuntu/miniconda3/envs/aims-build/bin/mpifort (GNU) version 15.2.0
  Fortran compiler flags: -O3 -fallow-argument-mismatch -ffree-line-length-none
  C compiler            : /home/ubuntu/miniconda3/envs/aims-build/bin/mpicc (GNU) version 15.2.0
  C compiler flags      : -O3 -funroll-loops -std=gnu99
  C++ compiler          : /home/ubuntu/miniconda3/envs/aims-build/bin/mpicxx (GNU) version 15.2.0
  C++ compiler flags    :
  HIP compiler          :
  HIP compiler flags    :
  HIP GPU arch          :
  Using MPI
  Using ScaLAPACK
  Using LibXC
  Using i-PI
  Using HDF5
  Using RLSY
  Using GREENX
  Linking against: /home/ubuntu/miniconda3/envs/aims-build/lib/libscalapack.so
                   /home/ubuntu/miniconda3/envs/aims-build/lib/libopenblas.so
                   /home/ubuntu/miniconda3/envs/aims-build/lib/libhdf5_fortran.so
                   /home/ubuntu/miniconda3/envs/aims-build/lib/libhdf5.so

  Using       32 parallel tasks.
  Task        0 on host cpu32-dy-c7iflexlarge16-1 reporting.
  Task        1 on host cpu32-dy-c7iflexlarge16-1 reporting.
  Task        2 on host cpu32-dy-c7iflexlarge16-1 reporting.
  Task        3 on host cpu32-dy-c7iflexlarge16-1 reporting.
  Task        4 on host cpu32-dy-c7iflexlarge16-1 reporting.
  Task        5 on host cpu32-dy-c7iflexlarge16-1 reporting.
  Task        6 on host cpu32-dy-c7iflexlarge16-1 reporting.
  Task        7 on host cpu32-dy-c7iflexlarge16-1 reporting.
  Task        8 on host cpu32-dy-c7iflexlarge16-1 reporting.
  Task        9 on host cpu32-dy-c7iflexlarge16-1 reporting.
  Task       10 on host cpu32-dy-c7iflexlarge16-1 reporting.
  Task       11 on host cpu32-dy-c7iflexlarge16-1 reporting.
  Task       12 on host cpu32-dy-c7iflexlarge16-1 reporting.
  Task       13 on host cpu32-dy-c7iflexlarge16-1 reporting.
  Task       14 on host cpu32-dy-c7iflexlarge16-1 reporting.
  Task       15 on host cpu32-dy-c7iflexlarge16-1 reporting.
  Task       16 on host cpu32-dy-c7iflexlarge16-1 reporting.
  Task       17 on host cpu32-dy-c7iflexlarge16-1 reporting.
  Task       18 on host cpu32-dy-c7iflexlarge16-1 reporting.
  Task       19 on host cpu32-dy-c7iflexlarge16-1 reporting.
  Task       20 on host cpu32-dy-c7iflexlarge16-1 reporting.
  Task       21 on host cpu32-dy-c7iflexlarge16-1 reporting.
  Task       22 on host cpu32-dy-c7iflexlarge16-1 reporting.
  Task       23 on host cpu32-dy-c7iflexlarge16-1 reporting.
  Task       24 on host cpu32-dy-c7iflexlarge16-1 reporting.
  Task       25 on host cpu32-dy-c7iflexlarge16-1 reporting.
  Task       26 on host cpu32-dy-c7iflexlarge16-1 reporting.
  Task       27 on host cpu32-dy-c7iflexlarge16-1 reporting.
  Task       28 on host cpu32-dy-c7iflexlarge16-1 reporting.
  Task       29 on host cpu32-dy-c7iflexlarge16-1 reporting.
  Task       30 on host cpu32-dy-c7iflexlarge16-1 reporting.
  Task       31 on host cpu32-dy-c7iflexlarge16-1 reporting.

  Obtaining array dimensions for all initial allocations:
  
  -----------------------------------------------------------------------
  Parsing control.in (first pass over file, find array dimensions only).
  The contents of control.in will be repeated verbatim below
  unless switched off by setting 'verbatim_writeout .false.' .
  in the first line of control.in .
  -----------------------------------------------------------------------
  
  # FHI-aims control parameters for strained graphene
  xc pbe
  spin none
  relativistic atomic_zora scalar
  k_grid 400 400 1
  empty_states 15
  sc_iter_limit 0
  ri_density_restart read 0
  compute_momentummatrix -10.0 10.0 0
  
  ################################################################################
  # Species Defaults: Carbon (intermediate)
  ################################################################################
  ################################################################################
  #
  #  FHI-aims code project
  #  Volker Blum, 2017
  #
  #  Suggested "intermediate" defaults for C atom (to be pasted into control.in file)
  #
  ################################################################################
    species        C
  #     global species definitions
      nucleus             6
      mass                12.0107
  #
      l_hartree           6
  #
      cut_pot             4.0  2.0  1.0
      basis_dep_cutoff    1e-4
  #
      radial_base         34 7.0
      radial_multiplier   2
      angular_grids specified
        division   0.2187   50
        division   0.4416  110
        division   0.6335  194
        division   0.7727  302
        division   0.8772  434
  #      division   0.9334  590
  #      division   0.9924  770
  #      division   1.0230  974
  #      division   1.5020 1202
  #     outer_grid  974
        outer_grid  434
  ################################################################################
  #
  #  Definition of "minimal" basis
  #
  ################################################################################
  #     valence basis states
      valence      2  s   2.
      valence      2  p   2.
  #     ion occupancy
      ion_occ      2  s   1.
      ion_occ      2  p   1.
  ################################################################################
  #
  #  Suggested additional basis functions. For production calculations,
  #  uncomment them one after another (the most important basis functions are
  #  listed first).
  #
  #  Constructed for dimers: 1.0 A, 1.25 A, 1.5 A, 2.0 A, 3.0 A
  #
  ################################################################################
  #  "First tier" - improvements: -1214.57 meV to -155.61 meV
       hydro 2 p 1.7
       hydro 3 d 6
       hydro 2 s 4.9
  #  "Second tier" - improvements: -67.75 meV to -5.23 meV
       hydro 4 f 9.8
  #     hydro 3 p 5.2
  #     hydro 3 s 4.3
    for_aux    hydro 5 g 14.4
  #     hydro 3 d 6.2
  #  "Third tier" - improvements: -2.43 meV to -0.60 meV
  #     hydro 2 p 5.6
  #     hydro 2 s 1.4
  #     hydro 3 d 4.9
  #     hydro 4 f 11.2
  #  "Fourth tier" - improvements: -0.39 meV to -0.18 meV
  #     hydro 2 p 2.1
  #     hydro 5 g 16.4
  #     hydro 4 d 13.2
  #     hydro 3 s 13.6
  #     hydro 4 f 17.6
  #  Further basis functions - improvements: -0.08 meV and below
  #     hydro 3 s 2
  #     hydro 3 p 6
  #     hydro 4 d 20
  
  
  -----------------------------------------------------------------------
  Completed first pass over input file control.in .
  -----------------------------------------------------------------------
  
  
  -----------------------------------------------------------------------
  Parsing geometry.in (first pass over file, find array dimensions only).
  The contents of geometry.in will be repeated verbatim below
  unless switched off by setting 'verbatim_writeout .false.' .
  in the first line of geometry.in .
  -----------------------------------------------------------------------
  
  #
  # This is the geometry file that corresponds to the current relaxation step.
  # If you do not want this file to be written, set the "write_restart_geometry" flag to .false.
  #  aims_uuid : D9DAF729-33FD-452E-A3CB-53B06144E702
  #
  lattice_vector      2.236943620000     -1.219852500000      0.000000000000
  lattice_vector      2.236943620000      1.219852500000      0.000000000000
  lattice_vector      0.000000000000      0.000000000000     15.000000000000
  atom       0.003152298206      0.000000000001     -0.000000000003 C
  atom       1.488143451794     -0.000000000001      0.000000000003 C
  #
  # What follows is the current estimated Hessian matrix constructed by the BFGS algorithm.
  # This is NOT the true Hessian matrix of the system.
  # If you do not want this information here, switch it off using the "hessian_to_restart_geometry" keyword.
  #
  trust_radius             0.2000000030
  hessian_file
  
  -----------------------------------------------------------------------
  Completed first pass over input file geometry.in .
  -----------------------------------------------------------------------
  

  Basic array size parameters:
  | Number of species                 :        1
  | Number of atoms                   :        2
  | Number of lattice vectors         :        3
  | Max. basis fn. angular momentum   :        4
  | Max. atomic/ionic basis occupied n:        2
  | Max. number of basis fn. types    :        2
  | Max. radial fns per species/type  :        5
  | Max. logarithmic grid size        :     1277
  | Max. radial integration grid size :       69
  | Max. angular integration grid size:      434
  | Max. angular grid division number :        8
  | Radial grid for Hartree potential :     1277
  | Number of spin channels           :        1

  Definition of standardized fundamental physical constants in this FHI-aims run:
  | Using the set of values used in FHI-aims up to 2024, which combines values from
  | different CODATA sets - see constants.f90.
  | Use the 'codata' keyword in control.in to change this selection.

  Memory overcommitment is allowed on your operating system.

------------------------------------------------------------
          Reading file control.in.
------------------------------------------------------------
  XC: Using PBE gradient-corrected functionals.
  Spin treatment: No spin polarisation.
  Scalar relativistic treatment of kinetic energy: on-site free-atom approximation to ZORA.
  Found k-point grid:       400       400         1
  Number of empty states per atom:       15
  Maximum number of s.-c. iterations  :     0
  Compute Momentum Matrix.

  Reading configuration options for species C                   .
  | Found nuclear charge :   6.0000
  | Found atomic mass :    12.010700000000000      amu
  | Found l_max for Hartree potential  :   6
  | Found cutoff potl. onset [A], width [A], scale factor :    4.00000    2.00000    1.00000
  | Threshold for basis-dependent cutoff potential is   0.100000E-03
  | Found data for basic radial integration grid :    34 points, outermost radius =    7.000 A
  | Found multiplier for basic radial grid :   2
  | Found angular grid specification: user-specified.
  | Specified grid contains     6 separate shells.
  | Check grid settings after all constraints further below.
  | Found free-atom valence shell :  2 s   2.000
  | Found free-atom valence shell :  2 p   2.000
  | No ionic wave fns used. Skipping ion_occ.
  | No ionic wave fns used. Skipping ion_occ.
  | Found hydrogenic basis function :  2 p   1.700
  | Found hydrogenic basis function :  3 d   6.000
  | Found hydrogenic basis function :  2 s   4.900
  | Found hydrogenic basis function :  4 f   9.800
  | Found hydrogenic extended basis function :  5 g  14.400
  Species C                   : Missing cutoff potential type.
  Defaulting to exp(1/x)/(1-x)^2 type cutoff potential.
  Species C : No 'logarithmic' tag. Using default grid for free atom:
  | Default logarithmic grid data [bohr] : 0.1000E-03 0.1000E+03 0.1012E+01
  Species C : On-site basis accuracy parameter (for Gram-Schmidt orthonormalisation) not specified.
  Using default value basis_acc =  0.1000000E-03.
  Species C                   : Using default innermost maximum threshold i_radial=  2 for radial functions.
  Species C                   : Default cutoff onset for free atom density etc. : 0.40000000E+01 AA.
  Species C                   : Basic radial grid will be enhanced according to radial_multiplier =   2, to contain    69 grid points.

  Finished reading input file 'control.in'.

------------------------------------------------------------


------------------------------------------------------------
          Reading geometry description geometry.in.
------------------------------------------------------------
 * Large trust radius value found - resetting to the current value of max_atomic_move,      0.20000000 A.
  Found keyword 'hessian_file', indicating that this is the continuation of a structure optimization.
  However, the control.in file does not request the geometry to be optimized.
  Ignoring the request for a file 'hessian.aims' to be present.
  | The smallest distance between any two atoms is         1.43299429 AA.
  | The first atom of this pair is atom number                      1 .
  | The second atom of this pair is atom number                     2 .
  | Wigner-Seitz cell of the first atom image           1     0     0 .
  | (The Wigner-Seitz cell of the second atom is 0 0 0  by definition.)

  Symmetry information by spglib:
  | Precision set to  0.1E-04
  | Number of Operations  : 8
  | Space group           : 65
  | International         : Cmmm
  | Schoenflies           : D2h^19
  Input structure read successfully.
  The structure contains        2 atoms,  and a total of         12.000 electrons.

  Input geometry:
  | Unit cell:
  |        2.23694362       -1.21985250        0.00000000
  |        2.23694362        1.21985250        0.00000000
  |        0.00000000        0.00000000       15.00000000
  | Atomic structure:
  |       Atom                x [A]            y [A]            z [A]
  |    1: Species C             0.00315230        0.00000000       -0.00000000
  |    2: Species C             1.48814345       -0.00000000        0.00000000

  Lattice parameters for 3D lattice (in Angstroms) :     2.547932    2.547932   15.000000
  Angle(s) between unit vectors (in degrees)       :    90.000000   90.000000   57.209131


  Quantities derived from the lattice vectors (in Angstrom^-1):
  | Reciprocal lattice vector 1:  1.404413 -2.575387  0.000000
  | Reciprocal lattice vector 2:  1.404413  2.575387  0.000000
  | Reciprocal lattice vector 3:  0.000000  0.000000  0.418879
  | Unit cell volume                               :   0.818622E+02  Angstrom^3

  Fractional coordinates:
                         L1                L2                L3
       atom_frac         0.00070460        0.00070460       -0.00000000  C
       atom_frac         0.33262873        0.33262873        0.00000000  C

  Slab Identifier: This is Z-oriented slab and maximum thickness of the vacuum is: 15.000 Angstrom.

  Finished reading input file 'geometry.in'.



  Consistency checks for stacksize environment parameter are next.

  | Maximum stacksize for task 0: unlimited
  | Maximum stacksize for task 1: unlimited
  | Maximum stacksize for task 2: unlimited
  | Maximum stacksize for task 3: unlimited
  | Maximum stacksize for task 4: unlimited
  | Maximum stacksize for task 5: unlimited
  | Maximum stacksize for task 6: unlimited
  | Maximum stacksize for task 7: unlimited
  | Maximum stacksize for task 8: unlimited
  | Maximum stacksize for task 9: unlimited
  | Maximum stacksize for task 10: unlimited
  | Maximum stacksize for task 11: unlimited
  | Maximum stacksize for task 12: unlimited
  | Maximum stacksize for task 13: unlimited
  | Maximum stacksize for task 14: unlimited
  | Maximum stacksize for task 15: unlimited
  | Maximum stacksize for task 16: unlimited
  | Maximum stacksize for task 17: unlimited
  | Maximum stacksize for task 18: unlimited
  | Maximum stacksize for task 19: unlimited
  | Maximum stacksize for task 20: unlimited
  | Maximum stacksize for task 21: unlimited
  | Maximum stacksize for task 22: unlimited
  | Maximum stacksize for task 23: unlimited
  | Maximum stacksize for task 24: unlimited
  | Maximum stacksize for task 25: unlimited
  | Maximum stacksize for task 26: unlimited
  | Maximum stacksize for task 27: unlimited
  | Maximum stacksize for task 28: unlimited
  | Maximum stacksize for task 29: unlimited
  | Maximum stacksize for task 30: unlimited
  | Maximum stacksize for task 31: unlimited
  | Current stacksize for task 0: unlimited
  | Current stacksize for task 1: unlimited
  | Current stacksize for task 2: unlimited
  | Current stacksize for task 3: unlimited
  | Current stacksize for task 4: unlimited
  | Current stacksize for task 5: unlimited
  | Current stacksize for task 6: unlimited
  | Current stacksize for task 7: unlimited
  | Current stacksize for task 8: unlimited
  | Current stacksize for task 9: unlimited
  | Current stacksize for task 10: unlimited
  | Current stacksize for task 11: unlimited
  | Current stacksize for task 12: unlimited
  | Current stacksize for task 13: unlimited
  | Current stacksize for task 14: unlimited
  | Current stacksize for task 15: unlimited
  | Current stacksize for task 16: unlimited
  | Current stacksize for task 17: unlimited
  | Current stacksize for task 18: unlimited
  | Current stacksize for task 19: unlimited
  | Current stacksize for task 20: unlimited
  | Current stacksize for task 21: unlimited
  | Current stacksize for task 22: unlimited
  | Current stacksize for task 23: unlimited
  | Current stacksize for task 24: unlimited
  | Current stacksize for task 25: unlimited
  | Current stacksize for task 26: unlimited
  | Current stacksize for task 27: unlimited
  | Current stacksize for task 28: unlimited
  | Current stacksize for task 29: unlimited
  | Current stacksize for task 30: unlimited
  | Current stacksize for task 31: unlimited

  Consistency checks for the contents of control.in are next.

  MPI_IN_PLACE appears to work with this MPI implementation.
  | Keeping use_mpi_in_place .true. (see manual).
  Explicit treatment of the Coulomb operator is needed, but the RI method is not specified.
  Coulomb operator: Defaulting to 'LVL fast' resolution of identity - RI_type = LVL_fast
  Species C: Using default value for prodbas_acc =   1.000000E-04.
  Species C: Using default value max_l_prodbas =    20.
  Target number of points in a grid batch is not set. Defaulting to  100
  Method for grid partitioning is not set. Defaulting to parallel hash+maxmin partitioning.
  Batch size limit is not set. Defaulting to    200
  By default, will store active basis functions for each batch.
  If in need of memory, prune_basis_once .false. can be used to disable this option.
  communication_type for Hartree potential was not specified.
  Defaulting to calc_hartree .
  Defaulting to Pulay charge density mixer.
  Pulay mixer: Number of relevant iterations not set.
  Defaulting to    8 iterations.
  Pulay mixer: Number of initial linear mixing iterations not set.
  Defaulting to    0 iterations.
  Work space size for distributed Hartree potential not set.
  Defaulting to   0.200000E+03 MB.
  Mixing parameter for charge density mixing has not been set.
  Using default: charge_mix_param =     0.0500.
  The mixing parameter will be adjusted in iteration number     2 of each s.c.f. cycle (i.e., each geometry step).
  Algorithm-dependent basis array size parameters:
  | n_max_pulay                         :        8
  Presetting      1001 iterations before the initial mixing cycle
  is restarted anyway using the sc_init_iter criterion / keyword.
  Presetting a factor      1.000 between actual scf density residual
  and density convergence criterion sc_accuracy_rho below which sc_init_iter
  takes no effect.
 * No s.c.f. convergence criteria (sc_accuracy_*) were provided in control.in.
 * The run will proceed with a reasonable default guess, but please check whether.
 * the s.c.f. cycles seem to take too much or too little time.
  Calculation of forces was not defined in control.in. No forces will be calculated.
  Geometry relaxation not requested: no relaxation will be performed.
 * Notice: The s.c.f. convergence criterion sc_accuracy_rho was not provided.
 * We used to stop in this case, and ask the user to provide reasonable
 * scf convergence criteria. However, this led some users to employ criteria
 * that led to extremely long run times, e.g., for simple relaxation.
 * We now preset a default value for sc_accuracy_rho if it is not set.
 * You may still wish to check if this setting is too tight or too loose for your needs.
 * Based on n_atoms and forces and force-correction status, FHI-aims chose sc_accuracy_rho =  0.800000E-05 .
  No accuracy limit for integral partition fn. given. Defaulting to  0.1000E-14.
  No threshold value for u(r) in integrations given. Defaulting to  0.1000E-05.
  No occupation type (smearing scheme) given. Defaulting to Gaussian broadening, width =  0.1000E-01 eV.
  The width will be adjusted in iteration number     2 of each s.c.f. cycle (i.e., each geometry step).
  No accuracy for occupation numbers given. Defaulting to  0.1000E-12.
  No threshold value for occupation numbers given. Defaulting to  0.0000E+00.
  No accuracy for fermi level given. Defaulting to  0.1000E-19.
  Maximum # of iterations to find E_F not set. Defaulting to  200.
  Preferred method for the eigenvalue solver ('KS_method') not specified in 'control.in'.
  Defaulting to serial version, LAPACK (via ELSI), since more k-points than CPUs available.
  Threshold for basis singularities not set.
  Default threshold for basis singularities:  0.1000E-04
  partition_type (choice of integration weights) for integrals was not specified.
  | Using a version of the partition function of Stratmann and coworkers ('stratmann_sparse').
  | At each grid point, the set of atoms used to build the partition table is smoothly restricted to
  | only those atoms whose free-atom density would be non-zero at that grid point.
  Partitioning for Hartree potential was not defined. Using partition_type for integrals.
  | Adjusted default value of keyword multip_moments_threshold to:       0.10000000E-11
  | This value may affect high angular momentum components of the Hartree potential in periodic systems.
  Using 2025 definition of centers list for evaluation of the Stratmann partition function.
  Angular momentum expansion for Kerker preconditioner not set explicitly.
  | Using default value of   0
  No explicit requirement for turning off preconditioner.
  | By default, it will be turned off when the charge convergence reaches
  | sc_accuracy_rho  =   0.800000E-05
  No special mixing parameter while Kerker preconditioner is on.
  Using default: charge_mix_param =     0.0500.
  Threshold for auxiliary basis singularities not set.
  Default threshold for auxiliary basis singularities:  0.1000E-04
  Use default threshold for vanishing multipole moments of auxiliary basis:  0.1000E-07
  No q(lm)/r^(l+1) cutoff set for long-range Hartree potential.
  | Using default value of  0.100000E-09 .
  | Verify using the multipole_threshold keyword.
  Defaulting to new monopole extrapolation.
  Density update method: automatic selection selected.
  Using density matrix based charge density update.
  Using density matrix based charge density update.
  Using packed matrix style: index .
  Threshold of packed matrixes:  0.000000E+00
  Defaulting to use time-reversal symmetry for k-point grid.
  Charge integration errors on the 3D integration grid will be compensated
  by explicit normalization and distribution of residual charges.
  Use the "compensate_multipole_errors" flag to change this behaviour.
  Default to 1D ("use_logsbt") integrations for auxiliary 2-center integrals.
  Default onset of logarithmic r-grid for SBT is -38.000000000000
  Default onset of logarithmic k-grid for SBT is -25.000000000000
  Default range of logarithmic r- and k-grid for SBT is  45.000000000000
  Default number of logarithmic r- and k-grid for SBT is   4096
  You have requested the compute_momentummatrix keyword.
  symmetry_reduced_k_grid will be turned off.
  Set 'collect_eigenvectors' to be '.true.' for all serial calculations. This is mandatory.
  Set 'collect_eigenvectors' to be '.true.' for KS_method lapack_fast and serial.
  Found potential conflicts with setting 'use_local_index' for this calculation. Will not set it.

  Consistency checks for the contents of geometry.in are next.


  Range separation radius for Ewald summation (hartree_convergence_parameter):      5.00000000 bohr.
  Structure-dependent array size parameters: 
  | Maximum number of distinct radial functions  :        8
  | Maximum number of basis functions            :       60
  | Number of Kohn-Sham states (occupied + empty):       21
------------------------------------------------------------

  Checking k-grid inconsistencies now:
  | k-point density for reciprocal lattice vector 1 is  136.36 nkpts / Angstrom^-1
  | k-point density for reciprocal lattice vector 2 is  136.36 nkpts / Angstrom^-1
  | k-point density for reciprocal vacuum lattice vector 3 is    2.39 nkpts / Angstrom^-1

  | Ratio of k-point densities for reciprocal lattice vectors 1 vs 2 is    1.00

  * The specified k_grid leads to a nearly homogenous k-grid density in non-vacuum directions,
  * and seems sensible.

  | Checks passed.
  After read_input_data [GB]:    125.95

  Performing system and environment tests:
  | Environment variable OMP_NUM_THREADS correctly set to 1.
  | Checking for ScaLAPACK...
  | Testing pdtran()...
  | All pdtran() tests passed.
  | Testing CPU compatibility for run-time vs. build-time.
  | Reading /proc/cpuinfo for CPU information ...
  | Built for  : Intel(R) Xeon(R) Platinum 8488C
  | Running on : Intel(R) Xeon(R) Platinum 8488C
  | Runtime CPU compatibility verified.
  
  After prepare_system [GB]:    125.94

------------------------------------------------------------
          Preparing all fixed parts of the calculation.
------------------------------------------------------------
  Determining machine precision:
     2.2250738585072014E-308
  Setting up grids for atomic and cluster calculations.

  Creating wave function, potential, and density for free atoms.
  Runtime choices for atomic solver:
  | atomic solver xc        : PBE
  | compute density gradient: 1
  | compute kinetic density : F

  Species: C

  List of occupied orbitals and eigenvalues:
    n    l              occ      energy [Ha]    energy [eV]
    1    0           2.0000       -10.049212      -273.4530
    2    0           2.0000        -0.504761       -13.7352
    2    1           2.0000        -0.193631        -5.2690


  Adding cutoff potential to free-atom effective potential.
  Creating fixed part of basis set: Ionic, confined, hydrogenic.

  C                    hydrogenic:

  List of hydrogenic basis orbitals: 
    n    l      effective z      eigenvalue [eV]  inner max. [A]     outer max. [A]     outer radius [A]   
    2    1         1.700000        -9.8152           1.245706           1.245706           5.401630
    3    2         6.000000       -54.4226           0.792453           0.792453           4.178599
    2    0         4.900000       -81.6681           0.082559           0.562749           3.353238
    4    3         9.800000       -81.6681           0.863254           0.863254           4.028125

  List of extra hydrogenic orbitals for auxiliary basis: 
    n    l      effective z      eigenvalue [eV]  inner max. [A]     outer max. [A]     outer radius [A]   
    5    4        14.400000      -112.8510           0.917666           0.917666           3.883070

  Creating atomic-like basis functions for current effective potential.

  Species C                   :

  List of atomic basis orbitals and eigenvalues:
    n    l      energy [Ha]    energy [eV]    outer radius [A]
    1    0       -10.049212      -273.4530       1.934409
    2    0        -0.504761       -13.7352       5.271162
    2    1        -0.193631        -5.2690       5.401630

  Assembling full basis from fixed parts.
  | Species C :   atomic orbital   1 s accepted.
  | Species C :    hydro orbital   2 s accepted.
  | Species C :   atomic orbital   2 s accepted.
  | Species C :   atomic orbital   2 p accepted.
  | Species C :    hydro orbital   2 p accepted.
  | Species C :    hydro orbital   3 d accepted.
  | Species C :    hydro orbital   4 f accepted.

  Basis size parameters after reduction:
  | Total number of radial functions:        7
  | Total number of basis functions :       42

  Assembling extended basis for auxiliary basis.
  | Species C :   atomic orbital   1 s accepted.
  | Species C :    hydro orbital   2 s accepted.
  | Species C :   atomic orbital   2 s accepted.
  | Species C :   atomic orbital   2 p accepted.
  | Species C :    hydro orbital   2 p accepted.
  | Species C :    hydro orbital   3 d accepted.
  | Species C :    hydro orbital   4 f accepted.
  | Species C :    hydro orbital   5 g accepted.
  Per-task memory consumption for arrays in subroutine allocate_ext:
  |           2.617068MB.

  Extended basis size parameters after reduction:
  | Total number of radial functions:        8
  | Total number of basis functions :       60

  Testing on-site integration grid accuracy.
  |  Species  Function  <phi|h_atom|phi> (log., in eV)  <phi|h_atom|phi> (rad., in eV)
           1        1               -273.4529725981               -273.4529710451
           1        2                -10.7721037329                -10.7721022102
           1        3                 17.6044132585                 17.6044162052
           1        4                 -5.2694407727                 -5.2694065285
           1        5                  8.0197685752                  8.0203902556
           1        6                 27.4550771356                 27.4550766984
           1        7                 59.3556032036                 59.3556031370

  Preparing densities etc. for the partition functions (integrals / Hartree potential).

  Preparations completed.
  max(cpu_time)          :      0.075 s.
  Wall clock time (cpu1) :      0.074 s.
------------------------------------------------------------
  After prepare_scf [GB]:    124.64

  Initializing index lists of integration centers etc. from given atomic structure:
  Mapping all atomic coordinates to central unit cell.

  Initializing the k-points
  | Number of k-points                             :    160000
  The eigenvectors in the calculations are COMPLEX.
  | K-points in task   0:      5000
  | K-points in task   1:      5000
  | K-points in task   2:      5000
  | K-points in task   3:      5000
  | K-points in task   4:      5000
  | K-points in task   5:      5000
  | K-points in task   6:      5000
  | K-points in task   7:      5000
  | K-points in task   8:      5000
  | K-points in task   9:      5000
  | K-points in task  10:      5000
  | K-points in task  11:      5000
  | K-points in task  12:      5000
  | K-points in task  13:      5000
  | K-points in task  14:      5000
  | K-points in task  15:      5000
  | K-points in task  16:      5000
  | K-points in task  17:      5000
  | K-points in task  18:      5000
  | K-points in task  19:      5000
  | K-points in task  20:      5000
  | K-points in task  21:      5000
  | K-points in task  22:      5000
  | K-points in task  23:      5000
  | K-points in task  24:      5000
  | K-points in task  25:      5000
  | K-points in task  26:      5000
  | K-points in task  27:      5000
  | K-points in task  28:      5000
  | K-points in task  29:      5000
  | K-points in task  30:      5000
  | K-points in task  31:      5000
  | Number of basis functions in the Hamiltonian integrals       :       929
  | Number of basis functions in a single unit cell              :        42
  | Number of centers in hartree potential                       :       612
  | Number of centers in hartree multipole                       :       196
  | Number of centers in electron density summation              :       158
  | Number of centers in basis integrals                         :       170
  | Number of centers in integrals                               :        73
  | Number of centers in hamiltonian                             :       158
  | Number of centers in partition table from touching 0-cell    :       204
  | Number of centers in partition table total                   :       326
  | Consuming     215000 KiB for k_phase.
  | Number of super-cells (origin) [n_cells]                     :        1805
  | Number of super-cells (after PM_index) [n_cells]             :          86
  | Number of super-cells in hamiltonian [n_cells_in_hamiltonian]:          86
  | Size of matrix packed + index [n_hamiltonian_matrix_size]    :       44151
  After initialize_bc_dependent_lists [GB]:    118.10

------------------------------------------------------------
          Begin self-consistency loop: Initialization.

          Date     :  20260729, Time     :  194700.369
------------------------------------------------------------
  Available memory per node after initialize_hartree_non_periodic_ewald [GB]:    118.10
  | Estimated reciprocal-space cutoff momentum G_max:         1.90186217 bohr^-1 .
  | Reciprocal lattice points for long-range Hartree potential:      74
  Available memory per node after initialize_recip_hartree_potential [GB]:    118.10
  Available memory per node after initialize_scalapack [GB]:    118.10
  Available memory per node after aims_elsi_init_scf [GB]:    118.10
  Available memory per node after initialize_fixed_grids [GB]:    118.10
  Partitioning the integration grid into batches with parallel hashing+maxmin method.
  | Number of batches:      497
  | Maximal batch size:     193
  | Minimal batch size:      49
  | Average batch size:      72.748
  | Standard deviation of batch sizes:      22.348

  Integration load balanced across    32 MPI tasks.
  Work distribution over tasks is as follows:
  Task     0 has       1131 integration points.
  Task     1 has       1131 integration points.
  Task     2 has       1088 integration points.
  Task     3 has       1106 integration points.
  Task     4 has       1201 integration points.
  Task     5 has       1124 integration points.
  Task     6 has       1101 integration points.
  Task     7 has       1087 integration points.
  Task     8 has       1167 integration points.
  Task     9 has       1085 integration points.
  Task    10 has       1121 integration points.
  Task    11 has       1079 integration points.
  Task    12 has       1112 integration points.
  Task    13 has       1143 integration points.
  Task    14 has       1108 integration points.
  Task    15 has       1091 integration points.
  Task    16 has       1146 integration points.
  Task    17 has       1148 integration points.
  Task    18 has       1091 integration points.
  Task    19 has       1134 integration points.
  Task    20 has       1093 integration points.
  Task    21 has       1127 integration points.
  Task    22 has       1256 integration points.
  Task    23 has       1137 integration points.
  Task    24 has       1093 integration points.
  Task    25 has       1246 integration points.
  Task    26 has       1080 integration points.
  Task    27 has       1093 integration points.
  Task    28 has       1087 integration points.
  Task    29 has       1225 integration points.
  Task    30 has       1102 integration points.
  Task    31 has       1223 integration points.
  Available memory per node after partition_grid [GB]:    118.10
  Initializing partition tables, free-atom densities, potentials, etc. across the integration grid (initialize_grid_storage).
  | initialize_grid_storage: Actual outermost partition radius vs. multipole_radius_free
  | (-- VB: in principle, multipole_radius_free should be larger, hence this output)
  | Species        1: Confinement radius =              6.000000000000000 AA, multipole_radius_free =              6.029870734432609 AA.
  | Species        1: outer_partition_radius set to              6.029870734432609 AA .
  | The sparse table of interatomic distances needs        727.02 kbyte instead of       850.21 kbyte of memory.
  | Net number of integration points:    36156
  | of which are non-zero points    :    27800
  | Numerical average free-atom electrostatic potential    :     -3.01585121 eV
  Available memory per node after initialize_grid_storage_p1 [GB]:    118.10
  Reading density from ri_restart_coeffs.out

 --------------------------------------------
  Constructing auxiliary basis (full product) ...

  Product basis:
  | charge radius: extent of product basis function
  | field radius: extent of its Coulomb potential
  | Species   l  charge radius    field radius  multipol momen
  |    C      0     2.594002 A      2.594002 A       -5.415872E-17 a.u.
  |    C      0     3.272245 A      3.272245 A       -1.880784E-17 a.u.
  |    C      0     3.232486 A      3.232486 A        1.267506E-16 a.u.
  |    C      0     3.697756 A      3.697756 A        2.064624E-16 a.u.
  |    C      0     5.271162 A      5.271162 A       -2.850535E-16 a.u.
  |    C      0     5.401630 A      5.468070 A       -2.793518E-16 a.u.
  |    C      0     5.468070 A      5.468070 A        7.369077E-17 a.u.
  |    C      0     5.401630 A  4.386038E+12 A            0.659571 a.u.
  |    C      1     3.652826 A      3.652826 A        1.197349E-16 a.u.
  |    C      1     5.271162 A      5.271162 A       -4.345438E-17 a.u.
  |    C      1     5.401630 A      5.401630 A       -5.663572E-16 a.u.
  |    C      1     5.401630 A      5.401630 A        2.684439E-16 a.u.
  |    C      1     5.401630 A      5.468070 A        1.439821E-16 a.u.
  |    C      1     5.401630 A      5.401630 A        3.233643E-16 a.u.
  |    C      1     5.401630 A  2.650811E+06 A            1.996850 a.u.
  |    C      2     5.335997 A      5.335997 A        7.498062E-16 a.u.
  |    C      2     5.401630 A      5.401630 A        1.447439E-15 a.u.
  |    C      2     5.401630 A      5.401630 A        2.581478E-16 a.u.
  |    C      2     5.401630 A      5.401630 A        1.743162E-15 a.u.
  |    C      2     5.401630 A      5.468070 A       -1.574665E-16 a.u.
  |    C      2     5.468070 A      5.468070 A        1.759476E-15 a.u.
  |    C      2     5.468070 A  2.784885E+04 A           11.598673 a.u.
  |    C      3     4.496620 A      4.496620 A        1.350392E-16 a.u.
  |    C      3     4.496620 A      4.496620 A        1.577484E-15 a.u.
  |    C      3     4.496620 A      4.496620 A        2.979518E-15 a.u.
  |    C      3     4.551928 A      4.551928 A       -4.224462E-15 a.u.
  |    C      3     4.607917 A      4.607917 A        2.295937E-15 a.u.
  |    C      3     4.607917 A  2.242308E+03 A           25.654702 a.u.
  |    C      4     4.334694 A      4.334694 A       -1.476990E-16 a.u.
  |    C      4     4.334694 A      4.334694 A       -8.811534E-16 a.u.
  |    C      4     4.388011 A      4.388011 A        9.074810E-16 a.u.
  |    C      4     4.388011 A      4.388011 A        8.917091E-15 a.u.
  |    C      4     4.388011 A      4.388011 A        7.132810E-15 a.u.
  |    C      4     4.441983 A  5.286742E+02 A           79.199941 a.u.
  |    C      5     4.127827 A      4.127827 A        4.414473E-16 a.u.
  |    C      5     4.229996 A      4.229996 A        5.042418E-15 a.u.
  |    C      5     4.334694 A      4.334694 A        5.113079E-14 a.u.
  |    C      5     4.282025 A      4.282025 A       -5.084851E-14 a.u.
  |    C      5     4.334694 A  1.982530E+02 A          220.040026 a.u.
  |    C      6     4.028125 A      4.028125 A        5.420126E-15 a.u.
  |    C      6     3.979181 A  6.484837E+01 A           33.027497 a.u.
  |    C      7     3.979181 A      3.979181 A        9.240654E-16 a.u.
  |    C      7     3.979181 A  4.100379E+01 A          103.412487 a.u.
  |    C      8     3.883070 A  2.842669E+01 A          296.426571 a.u.

  | Shrink_full_auxil_basis : there are       44  radial auxiliary wave functions
                            accepted and      42 rejected.
  | Shrink_full_auxil_basis : there are totally                 576 partial auxiliary wave functions.
  | Largest number of auxiliary wave functions per atom:        288

  | Number of product basis functions per thread :    18
  | Minimal requirement for computer memory :           0.006 Gbs
  Minimal free memory per node after shrink_svd_auxil [GB]:    118.04
  Minimal free memory per node after allocate_basis_pairs [GB]:    118.04

  Basis pair condensation :       903  -->        903
  Renormalizing the free-atom superposition density to the exact electron count on the 3D integration grid.
  | Formal number of electrons (from input files) :      12.0000000000
  | Integrated number of electrons on 3D grid     :      12.0000283095
  | Charge integration error                      :       0.0000283095
  | Normalization factor for density and gradient :       0.9999976409
  Obtaining max. number of non-zero basis functions in each batch (get_n_compute_maxes).
  | Maximal number of non-zero basis functions:      571 in task     0
  | Maximal number of non-zero basis functions:      598 in task     1
  | Maximal number of non-zero basis functions:      585 in task     2
  | Maximal number of non-zero basis functions:      584 in task     3
  | Maximal number of non-zero basis functions:      574 in task     4
  | Maximal number of non-zero basis functions:      592 in task     5
  | Maximal number of non-zero basis functions:      592 in task     6
  | Maximal number of non-zero basis functions:      607 in task     7
  | Maximal number of non-zero basis functions:      590 in task     8
  | Maximal number of non-zero basis functions:      595 in task     9
  | Maximal number of non-zero basis functions:      595 in task    10
  | Maximal number of non-zero basis functions:      584 in task    11
  | Maximal number of non-zero basis functions:      582 in task    12
  | Maximal number of non-zero basis functions:      574 in task    13
  | Maximal number of non-zero basis functions:      589 in task    14
  | Maximal number of non-zero basis functions:      595 in task    15
  | Maximal number of non-zero basis functions:      601 in task    16
  | Maximal number of non-zero basis functions:      614 in task    17
  | Maximal number of non-zero basis functions:      607 in task    18
  | Maximal number of non-zero basis functions:      600 in task    19
  | Maximal number of non-zero basis functions:      589 in task    20
  | Maximal number of non-zero basis functions:      608 in task    21
  | Maximal number of non-zero basis functions:      602 in task    22
  | Maximal number of non-zero basis functions:      580 in task    23
  | Maximal number of non-zero basis functions:      601 in task    24
  | Maximal number of non-zero basis functions:      614 in task    25
  | Maximal number of non-zero basis functions:      592 in task    26
  | Maximal number of non-zero basis functions:      596 in task    27
  | Maximal number of non-zero basis functions:      596 in task    28
  | Maximal number of non-zero basis functions:      602 in task    29
  | Maximal number of non-zero basis functions:      582 in task    30
  | Maximal number of non-zero basis functions:      614 in task    31
  Available memory per node after get_n_compute_maxes_p1 [GB]:    118.04
  Initialize hartree_potential_storage
  Max. number of atoms included in rho_multipole:            2

  Evaluating partitioned Hartree potential by multipole expansion.
  | Original multipole sum: apparent total charge =   0.568089E-03
  | Sum of charges compensated after spline to logarithmic grids =   0.803160E-06
  | Analytical far-field extrapolation by fixed multipoles:
  | Hartree multipole sum: apparent total charge =   0.568089E-03
  Summing up the Hartree potential.
  | Ewald reciprocal-space coefficients, myid =     0 : cpu      0.000 s, wall      0.000 s.
  | Ewald reciprocal-space coefficients, myid =     1 : cpu      0.000 s, wall      0.000 s.
  | Ewald reciprocal-space coefficients, myid =     2 : cpu      0.000 s, wall      0.000 s.
  | Ewald reciprocal-space coefficients, myid =     3 : cpu      0.000 s, wall      0.000 s.
  | Ewald reciprocal-space coefficients, myid =     4 : cpu      0.000 s, wall      0.000 s.
  | Ewald reciprocal-space coefficients, myid =     5 : cpu      0.000 s, wall      0.000 s.
  | Ewald reciprocal-space coefficients, myid =     6 : cpu      0.000 s, wall      0.000 s.
  | Ewald reciprocal-space coefficients, myid =     7 : cpu      0.000 s, wall      0.000 s.
  | Ewald reciprocal-space coefficients, myid =     8 : cpu      0.000 s, wall      0.000 s.
  | Ewald reciprocal-space coefficients, myid =     9 : cpu      0.000 s, wall      0.000 s.
  | Ewald reciprocal-space coefficients, myid =    10 : cpu      0.000 s, wall      0.000 s.
  | Ewald reciprocal-space coefficients, myid =    11 : cpu      0.000 s, wall      0.000 s.
  | Ewald reciprocal-space coefficients, myid =    12 : cpu      0.000 s, wall      0.000 s.
  | Ewald reciprocal-space coefficients, myid =    13 : cpu      0.000 s, wall      0.000 s.
  | Ewald reciprocal-space coefficients, myid =    14 : cpu      0.000 s, wall      0.000 s.
  | Ewald reciprocal-space coefficients, myid =    15 : cpu      0.000 s, wall      0.000 s.
  | Ewald reciprocal-space coefficients, myid =    16 : cpu      0.000 s, wall      0.000 s.
  | Ewald reciprocal-space coefficients, myid =    17 : cpu      0.000 s, wall      0.000 s.
  | Ewald reciprocal-space coefficients, myid =    18 : cpu      0.000 s, wall      0.000 s.
  | Ewald reciprocal-space coefficients, myid =    19 : cpu      0.000 s, wall      0.000 s.
  | Ewald reciprocal-space coefficients, myid =    20 : cpu      0.000 s, wall      0.000 s.
  | Ewald reciprocal-space coefficients, myid =    21 : cpu      0.000 s, wall      0.000 s.
  | Ewald reciprocal-space coefficients, myid =    22 : cpu      0.000 s, wall      0.000 s.
  | Ewald reciprocal-space coefficients, myid =    23 : cpu      0.000 s, wall      0.000 s.
  | Ewald reciprocal-space coefficients, myid =    24 : cpu      0.000 s, wall      0.000 s.
  | Ewald reciprocal-space coefficients, myid =    25 : cpu      0.000 s, wall      0.000 s.
  | Ewald reciprocal-space coefficients, myid =    26 : cpu      0.000 s, wall      0.000 s.
  | Ewald reciprocal-space coefficients, myid =    27 : cpu      0.000 s, wall      0.000 s.
  | Ewald reciprocal-space coefficients, myid =    28 : cpu      0.000 s, wall      0.000 s.
  | Ewald reciprocal-space coefficients, myid =    29 : cpu      0.000 s, wall      0.000 s.
  | Ewald reciprocal-space coefficients, myid =    30 : cpu      0.000 s, wall      0.000 s.
  | Ewald reciprocal-space coefficients, myid =    31 : cpu      0.000 s, wall      0.000 s.
  Time summed over all CPUs for potential: real work        0.017 s, elapsed        0.020 s
  | RMS charge density error from multipole expansion :   0.725750E-02
  | Average real-space part of the electrostatic potential :     -0.00021456 eV

  Allocating       67.291 MB for KS_eigenvector_complex
  Available memory per node after allocate_matrices [GB]:    115.70
  Available memory per node after init_comm_sparse_local_matrix_scalapack [GB]:    115.70
  Integrating Hamiltonian matrix: batch-based integration.
  Time summed over all CPUs for integration: real work        1.095 s, elapsed        1.242 s
  Available memory per node after integrate hamiltonian matrix [GB]:    115.44
  Integrating overlap matrix.
  Time summed over all CPUs for integration: real work        0.751 s, elapsed        0.879 s
  Available memory per node after integrate ovlp matrix [GB]:    115.44
  Available memory per node after save_overlap_scalapack [GB]:    115.44

  Updating Kohn-Sham eigenvalues and eigenvectors using ELSI and the (modified) LAPACK eigensolver.
  Singularity check in k-point 32, task 0 (analysis for other k-points/tasks may follow below):
  Overlap matrix is not singular
  | Lowest and highest eigenvalues :  0.1145E-02,  0.6754E+01
  Finished singularity check of overlap matrix
  | Time :     0.000 s
  Starting LAPACK eigensolver
  Finished Cholesky decomposition
  | Time :     0.000 s
  Finished transformation to standard eigenproblem
  | Time :     0.000 s
  Finished solving standard eigenproblem
  | Time :     0.000 s
  Finished back-transformation of eigenvectors
  | Time :     0.000 s

  Obtaining occupation numbers and electronic chemical potential using ELSI.
  | Note that, for insulating systems, the printed 'chemical potential' value is not uniquely defined.
  | It can be anywhere in the energy gap, as long as it correctly separates occupied and unoccupied states.
  | In systems with a gap, the physically relevant chemical potential is the VBM or HOMO.

  | Chemical potential (Fermi level):    -4.93604736 eV
  Available memory per node after advance_KS_solution [GB]:    113.37
  Writing Kohn-Sham eigenvalues.
  K-point:       1 at    0.000000    0.000000    0.000000 (in units of recip. lattice)

  State    Occupation    Eigenvalue [Ha]    Eigenvalue [eV]
      1       2.00000          -9.965947         -271.18720
      2       2.00000          -9.965193         -271.16671
      3       2.00000          -0.883994          -24.05470
      4       2.00000          -0.448650          -12.20839
      5       2.00000          -0.304523           -8.28649
      6       2.00000          -0.286300           -7.79061
      7       0.00000           0.081794            2.22572
      8       0.00000           0.129953            3.53620
      9       0.00000           0.155950            4.24361
     10       0.00000           0.213226            5.80218
     11       0.00000           0.250172            6.80753
     12       0.00000           0.367506           10.00034
     13       0.00000           0.842658           22.92989
     14       0.00000           0.993767           27.04179
     15       0.00000           1.047608           28.50688
     16       0.00000           1.300957           35.40084
     17       0.00000           1.366262           37.17789
     18       0.00000           1.520014           41.36170
     19       0.00000           1.653365           44.99035
     20       0.00000           1.657626           45.10629
     21       0.00000           1.748175           47.57025

  What follows are estimated values for band gap, HOMO, LUMO, etc.
  | They are estimated on a discrete k-point grid and not necessarily exact.
  | For converged numbers, create a DOS and/or band structure plot on a denser k-grid.

  Highest occupied state (VBM) at     -4.94052757 eV (relative to internal zero)
  | Occupation number:      1.47365672
  | K-point:   51872 at    0.322500    0.677500    0.000000 (in units of recip. lattice)

  Lowest unoccupied state (CBM) at    -4.93156716 eV (relative to internal zero)
  | Occupation number:      0.52634445
  | K-point:  108530 at    0.677500    0.322500    0.000000 (in units of recip. lattice)

  This system has fractional occupation numbers. Since we use a finite k-point grid,
  this material is metallic within the approximate finite broadening function (occupation_type)
  applied to determine the occupation numbers. We conclude: there is no gap in this system.
  ESTIMATED overall HOMO-LUMO gap:      0.00000000 eV.
  Calculating total energy contributions from superposition of free atom densities.

  Total energy components:
  | Sum of eigenvalues            :         -43.95074471 Ha       -1195.96061331 eV
  | XC energy correction          :         -10.77175639 Ha        -293.11440477 eV
  | XC potential correction       :          13.83724964 Ha         376.53072024 eV
  | Free-atom electrostatic energy:         -33.51228815 Ha        -911.91575829 eV
  | Hartree energy correction     :          -1.82195380 Ha         -49.57788530 eV
  | Entropy correction            :          -0.00000000 Ha          -0.00000006 eV
  | ---------------------------
  | Total energy                  :         -76.21949340 Ha       -2074.03794144 eV
  | Total energy, T -> 0          :         -76.21949341 Ha       -2074.03794150 eV  <-- do not rely on this value for anything but (periodic) metals
  | Electronic free energy        :         -76.21949341 Ha       -2074.03794155 eV

  Derived energy quantities:
  | Kinetic energy                :          75.85303858 Ha        2064.06619832 eV
  | Electrostatic energy          :        -141.30077560 Ha       -3844.98973499 eV
  | Energy correction for multipole
  | error in Hartree potential    :          -0.01008963 Ha          -0.27455291 eV
  | Sum of eigenvalues per atom                           :        -597.98030666 eV
  | Total energy (T->0) per atom                          :       -1037.01897075 eV  <-- do not rely on this value for anything but (periodic) metals
  | Electronic free energy per atom                       :       -1037.01897078 eV

  End scf initialization - timings             :  max(cpu_time)    wall_clock(cpu1)
  | Time for scf. initialization                :        5.232 s           5.232 s
  | Boundary condition initialization           :        0.631 s           0.632 s
  | Integration                                 :        0.070 s           0.070 s
  | Solution of K.-S. eqns.                     :        4.472 s           4.474 s
  | Grid partitioning                           :        0.016 s           0.015 s
  | Preloading free-atom quantities on grid     :        0.593 s           0.593 s
  | Free-atom superposition energy              :        0.002 s           0.003 s
  | Total energy evaluation                     :        0.054 s           0.053 s

  Partial memory accounting:
  | Current value for overall tracked memory usage:
  |   Minimum:       68.161 MB (on task  0)
  |   Maximum:       68.161 MB (on task  0)
  |   Average:       68.161 MB
  | Peak value for overall tracked memory usage:
  |   Minimum:       73.184 MB (on task  0 after allocating wave)
  |   Maximum:       73.764 MB (on task 17 after allocating wave)
  |   Average:       73.490 MB
  | Largest tracked array allocation so far:
  |   Minimum:       67.291 MB (KS_eigenvector_complex on task  0)
  |   Maximum:       67.291 MB (KS_eigenvector_complex on task  0)
  |   Average:       67.291 MB
  Note:  These values currently only include a subset of arrays which are explicitly tracked.
  The "true" memory usage will be greater.
------------------------------------------------------------
  Available memory after initialize_scf [GB]:    113.37
  Available memory after allocating mixing [GB]:    113.37
  Evaluating new KS density using the density matrix
  Evaluating density matrix
  Time summed over all CPUs for getting density from density matrix: real work        2.147 s, elapsed        2.427 s
  Integration grid: deviation in total charge (<rho> - N_e) =  -4.263256E-14

  Time for density update prior                :  max(cpu_time)    wall_clock(cpu1)
  | self-consistency iterative process          :        0.307 s           0.307 s
  Available memory before start of SCF loop [GB]:    113.27
      Momentum Matrix post processing starts
  Integrating real-space momentum matrix: batch-based integration.
  Time summed over all CPUs for integration: real work        2.167 s, elapsed        2.467 s
  Integrating real-space momentum matrix: batch-based integration.
  Time summed over all CPUs for integration: real work        2.210 s, elapsed        2.452 s
  Integrating real-space momentum matrix: batch-based integration.
  Time summed over all CPUs for integration: real work        2.175 s, elapsed        2.392 s

  Energy and forces in a compact form:
  | Total energy uncorrected      :         -0.207403794143860E+04 eV
  | Total energy corrected        :         -0.207403794149629E+04 eV  <-- do not rely on this value for anything but (periodic) metals
  | Electronic free energy        :         -0.207403794155399E+04 eV

  ------------------------------------ 
  Start decomposition of the XC Energy 
  ------------------------------------ 
  X and C from original XC functional choice 
  Hartree-Fock Energy :          0.000000000 Ha              0.000000000 eV
  X Energy            :        -10.356040894 Ha           -281.802210658 eV
  C Energy            :         -0.415715493 Ha            -11.312194115 eV
  XC Energy w/o HF    :        -10.771756386 Ha           -293.114404773 eV
  Total XC Energy     :        -10.771756386 Ha           -293.114404773 eV
  ------------------------------------ 
  LDA X and C from self-consistent density 
  X Energy LDA        :         -9.389148275 Ha           -255.491723848 eV
  C Energy LDA        :         -0.793318191 Ha            -21.587286333 eV
  ------------------------------------ 
  End decomposition of the XC Energy 
  ------------------------------------ 

------------------------------------------------------------

------------------------------------------------------------------------------
  Final output of selected total energy values:

  The following output summarizes some interesting total energy values
  at the end of a run (AFTER all relaxation, molecular dynamics, etc.).

  | Total energy of the DFT / Hartree-Fock s.c.f. calculation      :          -2074.037941439 eV
  | Final zero-broadening corrected energy (caution - metals only) :          -2074.037941496 eV
  | For reference only, the value of 1 Hartree used in FHI-aims is :             27.211384500 eV
  | For reference only, the overall average (free atom contribution
  | + realspace contribution) of the electrostatic potential after
  | s.c.f. convergence is                                          :             -3.016065766 eV

  Before relying on these values, please be sure to understand exactly which
  total energy value is referred to by a given number. Different objects may
  all carry the same name 'total energy'. Definitions:

  Total energy of the DFT / Hartree-Fock s.c.f. calculation:
  | Note that this energy does not include ANY quantities calculated after the
  | s.c.f. cycle, in particular not ANY RPA, MP2, etc. many-body perturbation terms.

  Final zero-broadening corrected energy:
  | For metallic systems only, a broadening of the occupation numbers at the Fermi
  | level can be extrapolated back to zero broadening by an electron-gas inspired
  | formula. For all systems that are not real metals, this value can be
  | meaningless and should be avoided.

------------------------------------------------------------------------------
  Methods described in the following list of references were used in this FHI-aims run.
  If you publish the results, please make sure to cite these reference if they apply.
  FHI-aims is an academic code, and for our developers (often, Ph.D. students
  and postdocs), scientific credit in the community is essential.
  Thank you for helping us!

  For any use of FHI-aims, please cite:

    Volker Blum, Ralf Gehrke, Felix Hanke, Paula Havu, Ville Havu,
    Xinguo Ren, Karsten Reuter, and Matthias Scheffler
    'Ab initio molecular simulations with numeric atom-centered orbitals'
    Computer Physics Communications 180, 2175-2196 (2009)
    http://doi.org/10.1016/j.cpc.2009.06.022


  For Hartree-Fock, hybrid functionals, or many-body perturbation theory used in your run, please cite:

    Xinguo Ren, Patrick Rinke, Volker Blum, Juergen Wieferink, Alex Tkatchenko,
    Andrea Sanfilippo, Karsten Reuter, and Matthias Scheffler,
    'Resolution-of-identity approach to Hartree-Fock, hybrid density functionals,
    RPA, MP2, and GW with numeric atom-centered orbital basis functions'
    New Journal of Physics 14, 053020 (2012).
    http://doi.org/10.1088/1367-2630/14/5/053020


  The provided symmetry information was generated with SPGlib:

    Atsushi Togo, Yusuke Seto, Dimitar Pashov
    SPGlib 1.7.3 obtained from http://spglib.sourceforge.net
    Licence: New BSD license
    Copyright (C) 2008 Atsushi Togo


  The ELSI infrastructure was used in your run to solve the Kohn-Sham electronic structure.
  Please check out https://wordpress.elsi-interchange.org to learn more.
  If scalability is important for your project, please acknowledge ELSI by citing:

    V. W-z. Yu, F. Corsetti, A. Garcia, W. P. Huhn, M. Jacquelin, W. Jia,
    B. Lange, L. Lin, J. Lu, W. Mi, A. Seifitokaldani, A. Vazquez-Mayagoitia,
    C. Yang, H. Yang, and V. Blum
    'ELSI: A unified software interface for Kohn-Sham electronic structure solvers'
    Computer Physics Communications 222, 267-285 (2018).
    http://doi.org/10.1016/j.cpc.2017.09.007


  For the real-space grid partitioning and parallelization used in this calculation, please cite:

    Ville Havu, Volker Blum, Paula Havu, and Matthias Scheffler,
    'Efficient O(N) integration for all-electron electronic structure calculation'
    'using numerically tabulated basis functions'
    Journal of Computational Physics 228, 8367-8379 (2009).
    http://doi.org/10.1016/j.jcp.2009.08.008


  The high-level electronic structure method used in your calculation
  employed our efficient localized resolution of identity for the Coulomb operator.
  Some calculations, especially large-scale hybrid density functional theory,
  are only possible thanks to this development. For this feature, please cite:

    Arvid Ihrig, Juergen Wieferink, Igor Ying Zhang, Matti Ropo, Xinguo Ren,
    Patrick Rinke, Matthias Scheffler, and Volker Blum,
    'Accurate localized resolution of identity approach for linear-scaling
    hybrid density functionals and for many-body perturbation theory'
    New Journal of Physics 117, 093020 (2015).
    http://doi.org/10.1088/1367-2630/17/9/093020

  Of course, there are many other important community references, e.g., those cited in the
  above references. Our list is limited to references that describe implementations in the
  FHI-aims code. The reason is purely practical (length of this list) - please credit others as well.
------------------------------------------------------------
Warnings summary:

At least    0 warnings were raised during execution.

------------------------------------------------------------
          Leaving FHI-aims.
          Date     :  20260729, Time     :  194808.128

          Computational steps:
          | Number of self-consistency cycles          :            0
          | Number of SCF (re)initializations          :            1

          Detailed time accounting                     :  max(cpu_time)    wall_clock(cpu1)
          | Total time                                  :       68.480 s          68.495 s
          | Preparation time                            :        0.075 s           0.074 s
          | Boundary condition initalization            :        0.631 s           0.632 s
          | Grid partitioning                           :        0.016 s           0.015 s
          | Preloading free-atom quantities on grid     :        0.593 s           0.593 s
          | Free-atom superposition energy              :        0.002 s           0.003 s
          | Total time for integrations                 :        0.070 s           0.070 s
          | Product basis setup: Total time             :        0.000 s           0.000 s
          | Product basis: | 2-center integrations     :(       0.000 s)  (       0.000 s)
          | Product basis: | LVL 3-center & coefficient:(       0.000 s)  (       0.000 s)
          | Total time for solution of K.-S. equations  :        4.472 s           4.474 s
          | Total time for density update               :        0.307 s           0.307 s
          | Total time for mixing & preconditioning     :        0.000 s           0.000 s
          | Total time for Hartree multipole update     :        0.001 s           0.001 s
          | Total time for Hartree multipole sum        :        0.025 s           0.025 s
          | Total time for total energy evaluation      :        0.054 s           0.053 s
          | Total time for scaled ZORA corrections      :        0.000 s           0.000 s

          Partial memory accounting:
          | Residual value for overall tracked memory usage across tasks:     0.000000 MB (should be 0.000000 MB)
          | Peak values for overall tracked memory usage:
          |   Minimum:       76.323 MB (on task  0 after allocating gradient_basis_wave)
          |   Maximum:       77.156 MB (on task 25 after allocating gradient_basis_wave)
          |   Average:       76.730 MB
          | Largest tracked array allocation:
          |   Minimum:       67.291 MB (KS_eigenvector_complex on task  0)
          |   Maximum:       67.291 MB (KS_eigenvector_complex on task  0)
          |   Average:       67.291 MB
          Note:  These values currently only include a subset of arrays which are explicitly tracked.
          The "true" memory usage will be greater.

          Have a nice day.
------------------------------------------------------------
